%nproc=8
%mem=1000MB
# rb3lyp/6-311+g** NMR geom=connectivity

Title

0 1
C    -4.0500558   -0.5771862    0.8136712
H    -5.0263804   -1.0082727    1.0024760
C    -3.9381552    0.6617804    0.2400876
H    -4.8252424    1.2338890   -0.0111295
C    -2.6768410    1.2433246    0.0057578
C    -1.4974121    0.5051527    0.2848253
C    -1.6508332   -0.7338728    0.9404026
H    -0.7713646   -1.2730967    1.2633753
C    -2.8898548   -1.2624035    1.1994307
H    -2.9683706   -2.2124563    1.7152676
C    -2.5773185    2.5963696   -0.4192930
H    -3.4870728    3.1412239   -0.6474055
C    -1.3741895    3.2147896   -0.4364030
H    -1.2997315    4.2742019   -0.6578144
C    -0.1719488    2.4994090   -0.1734588
C    -0.2043917    1.1018437    0.0192689
C     1.0513491    3.2042560   -0.0676222
H     1.0427344    4.2819499   -0.1896997
C     2.1942091    2.5487446    0.2579577
H     3.1168527    3.0912848    0.4334727
C     2.2216473    1.1336562    0.2934990
C     1.0486931    0.3945528    0.0302412
C     3.4483363    0.4614633    0.5573939
H     4.3095794    1.0606054    0.8334846
C     3.5427346   -0.8855926    0.4749463
H     4.4731467   -1.3939704    0.7038822
C     2.4490052   -1.6474447   -0.0196319
C     1.2150704   -1.0057258   -0.3013573
C     0.2531113   -1.7434440   -1.0216591
H    -0.6541356   -1.2535051   -1.3462847
C     0.4494193   -3.0628597   -1.3413779
H    -0.3083162   -3.5944309   -1.9054060
C     1.6251726   -3.7207967   -0.9552541
H     1.7670048   -4.7687404   -1.1927019
C     2.6109872   -3.0144177   -0.3183050
H     3.5525612   -3.4902813   -0.0646367
Bq         0.7686168496     1.2265586105    -0.0234898243
Bq         0.7667713243     1.2760499576    -0.0166195546
Bq         0.7649257990     1.3255413046    -0.0097492848
Bq         0.7630802738     1.3750326516    -0.0028790150
Bq         0.7612347485     1.4245239986     0.0039912548
Bq         0.7593892232     1.4740153456     0.0108615246
Bq         0.7575436980     1.5235066926     0.0177317943
Bq         0.7556981727     1.5729980397     0.0246020641
Bq         0.7538526474     1.6224893867     0.0314723339
Bq         0.7520071222     1.6719807337     0.0383426037
Bq         0.7501615969     1.7214720807     0.0452128734
Bq         0.7483160716     1.7709634277     0.0520831432
Bq         0.7464705464     1.8204547748     0.0589534130
Bq         0.7446250211     1.8699461218     0.0658236828
Bq         0.7427794958     1.9194374688     0.0726939526
Bq         0.7409339706     1.9689288158     0.0795642223
Bq         0.7390884453     2.0184201628     0.0864344921
Bq         0.7372429200     2.0679115098     0.0933047619
Bq         0.7353973948     2.1174028569     0.1001750317
Bq         0.7335518695     2.1668942039     0.1070453015
Bq         0.7317063442     2.2163855509     0.1139155712
Bq         0.9645469960    -2.7327491509    -0.5601400158
Bq         0.9627014708    -2.6832578039    -0.5532697460
Bq         0.9608559455    -2.6337664569    -0.5463994762
Bq         0.9590104202    -2.5842751098    -0.5395292065
Bq         0.9571648949    -2.5347837628    -0.5326589367
Bq         0.9553193697    -2.4852924158    -0.5257886669
Bq         0.9534738444    -2.4358010688    -0.5189183971
Bq         0.9516283191    -2.3863097218    -0.5120481274
Bq         0.9497827939    -2.3368183748    -0.5051778576
Bq         0.9479372686    -2.2873270277    -0.4983075878
Bq         0.9460917433    -2.2378356807    -0.4914373180
Bq         0.9442462181    -2.1883443337    -0.4845670482
Bq         0.9424006928    -2.1388529867    -0.4776967785
Bq         0.9405551675    -2.0893616397    -0.4708265087
Bq         0.9387096423    -2.0398702926    -0.4639562389
Bq         0.9368641170    -1.9903789456    -0.4570859691
Bq         0.9350185917    -1.9408875986    -0.4502156993
Bq         0.9331730665    -1.8913962516    -0.4433454296
Bq         0.9313275412    -1.8419049046    -0.4364751598
Bq         0.9294820159    -1.7924135576    -0.4296048900
Bq         0.9276364907    -1.7429222105    -0.4227346202
Bq         0.9257909654    -1.6934308635    -0.4158643504
Bq         0.9239454401    -1.6439395165    -0.4089940807
Bq         0.9220999149    -1.5944481695    -0.4021238109
Bq         0.9202543896    -1.5449568225    -0.3952535411
Bq         0.9184088643    -1.4954654754    -0.3883832713
Bq         0.9165633391    -1.4459741284    -0.3815130015
Bq         0.9147178138    -1.3964827814    -0.3746427318
Bq         0.9128722885    -1.3469914344    -0.3677724620
Bq         0.9110267633    -1.2975000874    -0.3609021922
Bq         0.9091812380    -1.2480087404    -0.3540319224
Bq         0.9073357127    -1.1985173933    -0.3471616526
Bq         0.9054901875    -1.1490260463    -0.3402913829
Bq         0.9036446622    -1.0995346993    -0.3334211131
Bq         0.9017991369    -1.0500433523    -0.3265508433
Bq         0.8999536117    -1.0005520053    -0.3196805735
Bq         0.8981080864    -0.9510606583    -0.3128103037
Bq         0.8962625611    -0.9015693112    -0.3059400340
Bq         0.8944170358    -0.8520779642    -0.2990697642
Bq         0.8925715106    -0.8025866172    -0.2921994944
Bq         0.8907259853    -0.7530952702    -0.2853292246
Bq         0.8888804600    -0.7036039232    -0.2784589548
Bq         0.8870349348    -0.6541125761    -0.2715886851
Bq         0.8851894095    -0.6046212291    -0.2647184153
Bq         0.8833438842    -0.5551298821    -0.2578481455
Bq         0.8814983590    -0.5056385351    -0.2509778757
Bq         0.8796528337    -0.4561471881    -0.2441076060
Bq         0.8778073084    -0.4066558411    -0.2372373362
Bq         0.8759617832    -0.3571644940    -0.2303670664
Bq         0.8741162579    -0.3076731470    -0.2234967966
Bq         0.8722707326    -0.2581818000    -0.2166265268
Bq         0.8704252074    -0.2086904530    -0.2097562571
Bq         0.8685796821    -0.1591991060    -0.2028859873
Bq         0.8667341568    -0.1097077589    -0.1960157175
Bq         0.8648886316    -0.0602164119    -0.1891454477
Bq         0.8630431063    -0.0107250649    -0.1822751779
Bq         0.8611975810     0.0387662821    -0.1754049082
Bq         0.8593520558     0.0882576291    -0.1685346384
Bq         0.8575065305     0.1377489761    -0.1616643686
Bq         0.8556610052     0.1872403232    -0.1547940988
Bq         0.8538154800     0.2367316702    -0.1479238290
Bq         0.8519699547     0.2862230172    -0.1410535593
Bq         0.8501244294     0.3357143642    -0.1341832895
Bq         0.8482789042     0.3852057112    -0.1273130197
Bq         0.8464333789     0.4346970583    -0.1204427499
Bq         0.8445878536     0.4841884053    -0.1135724801
Bq         0.8427423284     0.5336797523    -0.1067022104
Bq         0.8408968031     0.5831710993    -0.0998319406
Bq         0.8390512778     0.6326624463    -0.0929616708
Bq         0.8372057525     0.6821537933    -0.0860914010
Bq         0.8353602273     0.7316451404    -0.0792211312
Bq         0.8335147020     0.7811364874    -0.0723508615
Bq         0.8316691767     0.8306278344    -0.0654805917
Bq         0.8298236515     0.8801191814    -0.0586103219
Bq         0.8279781262     0.9296105284    -0.0517400521
Bq         0.8261326009     0.9791018754    -0.0448697823
Bq         0.8242870757     1.0285932225    -0.0379995126
Bq         0.8224415504     1.0780845695    -0.0311292428
Bq         0.8205960251     1.1275759165    -0.0242589730
Bq         0.8187504999     1.1770672635    -0.0173887032
Bq         0.8169049746     1.2265586105    -0.0105184335
Bq         0.8150594493     1.2760499576    -0.0036481637
Bq         0.8132139241     1.3255413046     0.0032221061
Bq         0.8113683988     1.3750326516     0.0100923759
Bq         0.8095228735     1.4245239986     0.0169626457
Bq         0.8076773483     1.4740153456     0.0238329154
Bq         0.8058318230     1.5235066926     0.0307031852
Bq         0.8039862977     1.5729980397     0.0375734550
Bq         0.8021407725     1.6224893867     0.0444437248
Bq         0.8002952472     1.6719807337     0.0513139946
Bq         0.7984497219     1.7214720807     0.0581842643
Bq         0.7966041967     1.7709634277     0.0650545341
Bq         0.7947586714     1.8204547748     0.0719248039
Bq         0.7929131461     1.8699461218     0.0787950737
Bq         0.7910676209     1.9194374688     0.0856653435
Bq         0.7892220956     1.9689288158     0.0925356132
Bq         0.7873765703     2.0184201628     0.0994058830
Bq         0.7855310451     2.0679115098     0.1062761528
Bq         0.7836855198     2.1174028569     0.1131464226
Bq         0.7818399945     2.1668942039     0.1200166924
Bq         0.7799944693     2.2163855509     0.1268869621
Bq         1.0128351210    -2.7327491509    -0.5471686249
Bq         1.0109895958    -2.6832578039    -0.5402983551
Bq         1.0091440705    -2.6337664569    -0.5334280854
Bq         1.0072985452    -2.5842751098    -0.5265578156
Bq         1.0054530200    -2.5347837628    -0.5196875458
Bq         1.0036074947    -2.4852924158    -0.5128172760
Bq         1.0017619694    -2.4358010688    -0.5059470062
Bq         0.9999164442    -2.3863097218    -0.4990767365
Bq         0.9980709189    -2.3368183748    -0.4922064667
Bq         0.9962253936    -2.2873270277    -0.4853361969
Bq         0.9943798684    -2.2378356807    -0.4784659271
Bq         0.9925343431    -2.1883443337    -0.4715956573
Bq         0.9906888178    -2.1388529867    -0.4647253876
Bq         0.9888432926    -2.0893616397    -0.4578551178
Bq         0.9869977673    -2.0398702926    -0.4509848480
Bq         0.9851522420    -1.9903789456    -0.4441145782
Bq         0.9833067168    -1.9408875986    -0.4372443084
Bq         0.9814611915    -1.8913962516    -0.4303740387
Bq         0.9796156662    -1.8419049046    -0.4235037689
Bq         0.9777701410    -1.7924135576    -0.4166334991
Bq         0.9759246157    -1.7429222105    -0.4097632293
Bq         0.9740790904    -1.6934308635    -0.4028929595
Bq         0.9722335652    -1.6439395165    -0.3960226898
Bq         0.9703880399    -1.5944481695    -0.3891524200
Bq         0.9685425146    -1.5449568225    -0.3822821502
Bq         0.9666969894    -1.4954654754    -0.3754118804
Bq         0.9648514641    -1.4459741284    -0.3685416106
Bq         0.9630059388    -1.3964827814    -0.3616713409
Bq         0.9611604135    -1.3469914344    -0.3548010711
Bq         0.9593148883    -1.2975000874    -0.3479308013
Bq         0.9574693630    -1.2480087404    -0.3410605315
Bq         0.9556238377    -1.1985173933    -0.3341902617
Bq         0.9537783125    -1.1490260463    -0.3273199920
Bq         0.9519327872    -1.0995346993    -0.3204497222
Bq         0.9500872619    -1.0500433523    -0.3135794524
Bq         0.9482417367    -1.0005520053    -0.3067091826
Bq         0.9463962114    -0.9510606583    -0.2998389129
Bq         0.9445506861    -0.9015693112    -0.2929686431
Bq         0.9427051609    -0.8520779642    -0.2860983733
Bq         0.9408596356    -0.8025866172    -0.2792281035
Bq         0.9390141103    -0.7530952702    -0.2723578337
Bq         0.9371685851    -0.7036039232    -0.2654875640
Bq         0.9353230598    -0.6541125761    -0.2586172942
Bq         0.9334775345    -0.6046212291    -0.2517470244
Bq         0.9316320093    -0.5551298821    -0.2448767546
Bq         0.9297864840    -0.5056385351    -0.2380064848
Bq         0.9279409587    -0.4561471881    -0.2311362151
Bq         0.9260954335    -0.4066558411    -0.2242659453
Bq         0.9242499082    -0.3571644940    -0.2173956755
Bq         0.9224043829    -0.3076731470    -0.2105254057
Bq         0.9205588577    -0.2581818000    -0.2036551359
Bq         0.9187133324    -0.2086904530    -0.1967848662
Bq         0.9168678071    -0.1591991060    -0.1899145964
Bq         0.9150222819    -0.1097077589    -0.1830443266
Bq         0.9131767566    -0.0602164119    -0.1761740568
Bq         0.9113312313    -0.0107250649    -0.1693037870
Bq         0.9094857061     0.0387662821    -0.1624335173
Bq         0.9076401808     0.0882576291    -0.1555632475
Bq         0.9057946555     0.1377489761    -0.1486929777
Bq         0.9039491302     0.1872403232    -0.1418227079
Bq         0.9021036050     0.2367316702    -0.1349524381
Bq         0.9002580797     0.2862230172    -0.1280821684
Bq         0.8984125544     0.3357143642    -0.1212118986
Bq         0.8965670292     0.3852057112    -0.1143416288
Bq         0.8947215039     0.4346970583    -0.1074713590
Bq         0.8928759786     0.4841884053    -0.1006010892
Bq         0.8910304534     0.5336797523    -0.0937308195
Bq         0.8891849281     0.5831710993    -0.0868605497
Bq         0.8873394028     0.6326624463    -0.0799902799
Bq         0.8854938776     0.6821537933    -0.0731200101
Bq         0.8836483523     0.7316451404    -0.0662497404
Bq         0.8818028270     0.7811364874    -0.0593794706
Bq         0.8799573018     0.8306278344    -0.0525092008
Bq         0.8781117765     0.8801191814    -0.0456389310
Bq         0.8762662512     0.9296105284    -0.0387686612
Bq         0.8744207260     0.9791018754    -0.0318983915
Bq         0.8725752007     1.0285932225    -0.0250281217
Bq         0.8707296754     1.0780845695    -0.0181578519

1
2
3
4
5
6
7
8
9
10
11
12
13
14
15
16
17
18
19
20
21
22
23
24
25
26
27
28
29
30
31
32
33
34
35
36
37
38
39
40
41
42
43
44
45
46
47
48
49
50
51
52
53
54
55
56
57
58
59
60
61
62
63
64
65
66
67
68
69
70
71
72
73
74
75
76
77
78
79
80
81
82
83
84
85
86
87
88
89
90
91
92
93
94
95
96
97
98
99
100
101
102
103
104
105
106
107
108
109
110
111
112
113
114
115
116
117
118
119
120
121
122
123
124
125
126
127
128
129
130
131
132
133
134
135
136
137
138
139
140
141
142
143
144
145
146
147
148
149
150
151
152
153
154
155
156
157
158
159
160
161
162
163
164
165
166
167
168
169
170
171
172
173
174
175
176
177
178
179
180
181
182
183
184
185
186
187
188
189
190
191
192
193
194
195
196
197
198
199
200
201
202
203
204
205
206
207
208
209
210
211
212
213
214
215
216
217
218
219
220
221
222
223
224
225
226
227
228
229
230
231
232
233
234
235
236

