%nproc=8
%mem=1000MB
# rb3lyp/6-311+g** NMR geom=connectivity

Title

0 1
C    -4.0500558   -0.5771862    0.8136712
H    -5.0263804   -1.0082727    1.0024760
C    -3.9381552    0.6617804    0.2400876
H    -4.8252424    1.2338890   -0.0111295
C    -2.6768410    1.2433246    0.0057578
C    -1.4974121    0.5051527    0.2848253
C    -1.6508332   -0.7338728    0.9404026
H    -0.7713646   -1.2730967    1.2633753
C    -2.8898548   -1.2624035    1.1994307
H    -2.9683706   -2.2124563    1.7152676
C    -2.5773185    2.5963696   -0.4192930
H    -3.4870728    3.1412239   -0.6474055
C    -1.3741895    3.2147896   -0.4364030
H    -1.2997315    4.2742019   -0.6578144
C    -0.1719488    2.4994090   -0.1734588
C    -0.2043917    1.1018437    0.0192689
C     1.0513491    3.2042560   -0.0676222
H     1.0427344    4.2819499   -0.1896997
C     2.1942091    2.5487446    0.2579577
H     3.1168527    3.0912848    0.4334727
C     2.2216473    1.1336562    0.2934990
C     1.0486931    0.3945528    0.0302412
C     3.4483363    0.4614633    0.5573939
H     4.3095794    1.0606054    0.8334846
C     3.5427346   -0.8855926    0.4749463
H     4.4731467   -1.3939704    0.7038822
C     2.4490052   -1.6474447   -0.0196319
C     1.2150704   -1.0057258   -0.3013573
C     0.2531113   -1.7434440   -1.0216591
H    -0.6541356   -1.2535051   -1.3462847
C     0.4494193   -3.0628597   -1.3413779
H    -0.3083162   -3.5944309   -1.9054060
C     1.6251726   -3.7207967   -0.9552541
H     1.7670048   -4.7687404   -1.1927019
C     2.6109872   -3.0144177   -0.3183050
H     3.5525612   -3.4902813   -0.0646367
Bq        -4.5309393132     1.5036728754    -0.1653839299
Bq        -4.5308538470     1.5486985717    -0.1871251204
Bq        -4.5307683809     1.5937242681    -0.2088663109
Bq        -4.5306829148     1.6387499644    -0.2306075014
Bq        -4.5305974486     1.6837756607    -0.2523486919
Bq        -4.5305119825     1.7288013571    -0.2740898825
Bq        -4.5304265163     1.7738270534    -0.2958310730
Bq        -4.5303410502     1.8188527497    -0.3175722635
Bq        -4.5302555841     1.8638784461    -0.3393134540
Bq        -4.5301701179     1.9089041424    -0.3610546445
Bq        -4.5300846518     1.9539298388    -0.3827958350
Bq        -4.5299991857     1.9989555351    -0.4045370256
Bq        -4.5299137195     2.0439812314    -0.4262782161
Bq        -4.5298282534     2.0890069278    -0.4480194066
Bq        -4.5297427873     2.1340326241    -0.4697605971
Bq        -4.5296573211     2.1790583204    -0.4915017876
Bq        -4.5295718550     2.2240840168    -0.5132429781
Bq        -4.4881188550    -2.2784856168     1.6610726255
Bq        -4.4880333889    -2.2334599204     1.6393314349
Bq        -4.4879479228    -2.1884342241     1.6175902444
Bq        -4.4878624566    -2.1434085278     1.5958490539
Bq        -4.4877769905    -2.0983828314     1.5741078634
Bq        -4.4876915244    -2.0533571351     1.5523666729
Bq        -4.4876060582    -2.0083314388     1.5306254824
Bq        -4.4875205921    -1.9633057424     1.5088842918
Bq        -4.4874351259    -1.9182800461     1.4871431013
Bq        -4.4873496598    -1.8732543497     1.4654019108
Bq        -4.4872641937    -1.8282286534     1.4436607203
Bq        -4.4871787275    -1.7832029571     1.4219195298
Bq        -4.4870932614    -1.7381772607     1.4001783393
Bq        -4.4870077953    -1.6931515644     1.3784371487
Bq        -4.4869223291    -1.6481258681     1.3566959582
Bq        -4.4868368630    -1.6031001717     1.3349547677
Bq        -4.4867513968    -1.5580744754     1.3132135772
Bq        -4.4866659307    -1.5130487791     1.2914723867
Bq        -4.4865804646    -1.4680230827     1.2697311962
Bq        -4.4864949984    -1.4229973864     1.2479900057
Bq        -4.4864095323    -1.3779716901     1.2262488151
Bq        -4.4863240662    -1.3329459937     1.2045076246
Bq        -4.4862386000    -1.2879202974     1.1827664341
Bq        -4.4861531339    -1.2428946011     1.1610252436
Bq        -4.4860676677    -1.1978689047     1.1392840531
Bq        -4.4859822016    -1.1528432084     1.1175428626
Bq        -4.4858967355    -1.1078175120     1.0958016720
Bq        -4.4858112693    -1.0627918157     1.0740604815
Bq        -4.4857258032    -1.0177661194     1.0523192910
Bq        -4.4856403371    -0.9727404230     1.0305781005
Bq        -4.4855548709    -0.9277147267     1.0088369100
Bq        -4.4854694048    -0.8826890304     0.9870957195
Bq        -4.4853839386    -0.8376633340     0.9653545289
Bq        -4.4852984725    -0.7926376377     0.9436133384
Bq        -4.4852130064    -0.7476119414     0.9218721479
Bq        -4.4851275402    -0.7025862450     0.9001309574
Bq        -4.4850420741    -0.6575605487     0.8783897669
Bq        -4.4849566080    -0.6125348524     0.8566485764
Bq        -4.4848711418    -0.5675091560     0.8349073858
Bq        -4.4847856757    -0.5224834597     0.8131661953
Bq        -4.4847002095    -0.4774577634     0.7914250048
Bq        -4.4846147434    -0.4324320670     0.7696838143
Bq        -4.4845292773    -0.3874063707     0.7479426238
Bq        -4.4844438111    -0.3423806743     0.7262014333
Bq        -4.4843583450    -0.2973549780     0.7044602427
Bq        -4.4842728789    -0.2523292817     0.6827190522
Bq        -4.4841874127    -0.2073035853     0.6609778617
Bq        -4.4841019466    -0.1622778890     0.6392366712
Bq        -4.4840164804    -0.1172521927     0.6174954807
Bq        -4.4839310143    -0.0722264963     0.5957542902
Bq        -4.4838455482    -0.0272008000     0.5740130996
Bq        -4.4837600820     0.0178248963     0.5522719091
Bq        -4.4836746159     0.0628505927     0.5305307186
Bq        -4.4835891498     0.1078762890     0.5087895281
Bq        -4.4835036836     0.1529019853     0.4870483376
Bq        -4.4834182175     0.1979276817     0.4653071471
Bq        -4.4833327513     0.2429533780     0.4435659566
Bq        -4.4832472852     0.2879790743     0.4218247660
Bq        -4.4831618191     0.3330047707     0.4000835755
Bq        -4.4830763529     0.3780304670     0.3783423850
Bq        -4.4829908868     0.4230561634     0.3566011945
Bq        -4.4829054207     0.4680818597     0.3348600040
Bq        -4.4828199545     0.5131075560     0.3131188135
Bq        -4.4827344884     0.5581332524     0.2913776229
Bq        -4.4826490222     0.6031589487     0.2696364324
Bq        -4.4825635561     0.6481846450     0.2478952419
Bq        -4.4824780900     0.6932103414     0.2261540514
Bq        -4.4823926238     0.7382360377     0.2044128609
Bq        -4.4823071577     0.7832617340     0.1826716704
Bq        -4.4822216916     0.8282874304     0.1609304798
Bq        -4.4821362254     0.8733131267     0.1391892893
Bq        -4.4820507593     0.9183388230     0.1174480988
Bq        -4.4819652932     0.9633645194     0.0957069083
Bq        -4.4818798270     1.0083902157     0.0739657178
Bq        -4.4817943609     1.0534159120     0.0522245273
Bq        -4.4817088947     1.0984416084     0.0304833367
Bq        -4.4816234286     1.1434673047     0.0087421462
Bq        -4.4815379625     1.1884930011    -0.0129990443
Bq        -4.4814524963     1.2335186974    -0.0347402348
Bq        -4.4813670302     1.2785443937    -0.0564814253
Bq        -4.4812815641     1.3235700901    -0.0782226158
Bq        -4.4811960979     1.3685957864    -0.0999638064
Bq        -4.4811106318     1.4136214827    -0.1217049969
Bq        -4.4810251656     1.4586471791    -0.1434461874
Bq        -4.4809396995     1.5036728754    -0.1651873779
Bq        -4.4808542334     1.5486985717    -0.1869285684
Bq        -4.4807687672     1.5937242681    -0.2086697589
Bq        -4.4806833011     1.6387499644    -0.2304109495
Bq        -4.4805978350     1.6837756607    -0.2521521400
Bq        -4.4805123688     1.7288013571    -0.2738933305
Bq        -4.4804269027     1.7738270534    -0.2956345210
Bq        -4.4803414365     1.8188527497    -0.3173757115
Bq        -4.4802559704     1.8638784461    -0.3391169020
Bq        -4.4801705043     1.9089041424    -0.3608580925
Bq        -4.4800850381     1.9539298388    -0.3825992831
Bq        -4.4799995720     1.9989555351    -0.4043404736
Bq        -4.4799141059     2.0439812314    -0.4260816641
Bq        -4.4798286397     2.0890069278    -0.4478228546
Bq        -4.4797431736     2.1340326241    -0.4695640451
Bq        -4.4796577074     2.1790583204    -0.4913052356
Bq        -4.4795722413     2.2240840168    -0.5130464262
Bq        -4.4381192414    -2.2784856168     1.6612691774
Bq        -4.4380337752    -2.2334599204     1.6395279869
Bq        -4.4379483091    -2.1884342241     1.6177867964
Bq        -4.4378628430    -2.1434085278     1.5960456059
Bq        -4.4377773768    -2.0983828314     1.5743044154
Bq        -4.4376919107    -2.0533571351     1.5525632249
Bq        -4.4376064445    -2.0083314388     1.5308220343
Bq        -4.4375209784    -1.9633057424     1.5090808438
Bq        -4.4374355123    -1.9182800461     1.4873396533
Bq        -4.4373500461    -1.8732543497     1.4655984628
Bq        -4.4372645800    -1.8282286534     1.4438572723
Bq        -4.4371791139    -1.7832029571     1.4221160818
Bq        -4.4370936477    -1.7381772607     1.4003748912
Bq        -4.4370081816    -1.6931515644     1.3786337007
Bq        -4.4369227154    -1.6481258681     1.3568925102
Bq        -4.4368372493    -1.6031001717     1.3351513197
Bq        -4.4367517832    -1.5580744754     1.3134101292
Bq        -4.4366663170    -1.5130487791     1.2916689387
Bq        -4.4365808509    -1.4680230827     1.2699277481
Bq        -4.4364953848    -1.4229973864     1.2481865576
Bq        -4.4364099186    -1.3779716901     1.2264453671
Bq        -4.4363244525    -1.3329459937     1.2047041766
Bq        -4.4362389863    -1.2879202974     1.1829629861
Bq        -4.4361535202    -1.2428946011     1.1612217956
Bq        -4.4360680541    -1.1978689047     1.1394806050
Bq        -4.4359825879    -1.1528432084     1.1177394145
Bq        -4.4358971218    -1.1078175120     1.0959982240
Bq        -4.4358116557    -1.0627918157     1.0742570335
Bq        -4.4357261895    -1.0177661194     1.0525158430
Bq        -4.4356407234    -0.9727404230     1.0307746525
Bq        -4.4355552572    -0.9277147267     1.0090334619
Bq        -4.4354697911    -0.8826890304     0.9872922714
Bq        -4.4353843250    -0.8376633340     0.9655510809
Bq        -4.4352988588    -0.7926376377     0.9438098904
Bq        -4.4352133927    -0.7476119414     0.9220686999
Bq        -4.4351279266    -0.7025862450     0.9003275094
Bq        -4.4350424604    -0.6575605487     0.8785863188
Bq        -4.4349569943    -0.6125348524     0.8568451283
Bq        -4.4348715281    -0.5675091560     0.8351039378
Bq        -4.4347860620    -0.5224834597     0.8133627473
Bq        -4.4347005959    -0.4774577634     0.7916215568
Bq        -4.4346151297    -0.4324320670     0.7698803663
Bq        -4.4345296636    -0.3874063707     0.7481391758
Bq        -4.4344441975    -0.3423806743     0.7263979852
Bq        -4.4343587313    -0.2973549780     0.7046567947
Bq        -4.4342732652    -0.2523292817     0.6829156042
Bq        -4.4341877991    -0.2073035853     0.6611744137
Bq        -4.4341023329    -0.1622778890     0.6394332232
Bq        -4.4340168668    -0.1172521927     0.6176920327
Bq        -4.4339314006    -0.0722264963     0.5959508421
Bq        -4.4338459345    -0.0272008000     0.5742096516
Bq        -4.4337604684     0.0178248963     0.5524684611
Bq        -4.4336750022     0.0628505927     0.5307272706
Bq        -4.4335895361     0.1078762890     0.5089860801
Bq        -4.4335040700     0.1529019853     0.4872448896
Bq        -4.4334186038     0.1979276817     0.4655036990
Bq        -4.4333331377     0.2429533780     0.4437625085
Bq        -4.4332476715     0.2879790743     0.4220213180
Bq        -4.4331622054     0.3330047707     0.4002801275
Bq        -4.4330767393     0.3780304670     0.3785389370
Bq        -4.4329912731     0.4230561634     0.3567977465
Bq        -4.4329058070     0.4680818597     0.3350565559
Bq        -4.4328203409     0.5131075560     0.3133153654
Bq        -4.4327348747     0.5581332524     0.2915741749
Bq        -4.4326494086     0.6031589487     0.2698329844
Bq        -4.4325639424     0.6481846450     0.2480917939
Bq        -4.4324784763     0.6932103414     0.2263506034
Bq        -4.4323930102     0.7382360377     0.2046094128
Bq        -4.4323075440     0.7832617340     0.1828682223
Bq        -4.4322220779     0.8282874304     0.1611270318
Bq        -4.4321366118     0.8733131267     0.1393858413
Bq        -4.4320511456     0.9183388230     0.1176446508
Bq        -4.4319656795     0.9633645194     0.0959034603
Bq        -4.4318802133     1.0083902157     0.0741622697
Bq        -4.4317947472     1.0534159120     0.0524210792
Bq        -4.4317092811     1.0984416084     0.0306798887
Bq        -4.4316238149     1.1434673047     0.0089386982
Bq        -4.4315383488     1.1884930011    -0.0128024923
Bq        -4.4314528827     1.2335186974    -0.0345436828
Bq        -4.4313674165     1.2785443937    -0.0562848734
Bq        -4.4312819504     1.3235700901    -0.0780260639
Bq        -4.4311964842     1.3685957864    -0.0997672544

1
2
3
4
5
6
7
8
9
10
11
12
13
14
15
16
17
18
19
20
21
22
23
24
25
26
27
28
29
30
31
32
33
34
35
36
37
38
39
40
41
42
43
44
45
46
47
48
49
50
51
52
53
54
55
56
57
58
59
60
61
62
63
64
65
66
67
68
69
70
71
72
73
74
75
76
77
78
79
80
81
82
83
84
85
86
87
88
89
90
91
92
93
94
95
96
97
98
99
100
101
102
103
104
105
106
107
108
109
110
111
112
113
114
115
116
117
118
119
120
121
122
123
124
125
126
127
128
129
130
131
132
133
134
135
136
137
138
139
140
141
142
143
144
145
146
147
148
149
150
151
152
153
154
155
156
157
158
159
160
161
162
163
164
165
166
167
168
169
170
171
172
173
174
175
176
177
178
179
180
181
182
183
184
185
186
187
188
189
190
191
192
193
194
195
196
197
198
199
200
201
202
203
204
205
206
207
208
209
210
211
212
213
214
215
216
217
218
219
220
221
222
223
224
225
226
227
228
229
230
231
232
233
234
235
236

