%OldChk=/home/aartigas/chk/5_helicene_spe.chk
%nproc=8
%mem=1000MB
#P rb3lyp/6-311+g** NMR Guess=Read geom=connectivity

Title

0 1
C        0.6532410000     3.2578590000    -0.2025100000
C       -0.6532430000     3.2578600000     0.2025100000
C        1.3724950000     2.0329560000    -0.3208070000
C       -1.3724950000     2.0329560000     0.3208070000
C        0.7224740000     0.7956660000    -0.0503880000
C       -0.7224740000     0.7956670000     0.0503870000
C        2.7603850000     2.0539270000    -0.6742680000
C        3.5088660000     0.9139160000    -0.6713620000
C        2.9552260000    -0.3096220000    -0.1774790000
C        1.5747220000    -0.3611140000     0.1970940000
H        1.1834270000     4.1957400000    -0.3845990000
H       -1.1834290000     4.1957400000     0.3845990000
H        3.2062830000     3.0124230000    -0.9513920000
H        4.5600230000     0.9329560000    -0.9693330000
C        3.7830200000    -1.4430980000     0.0283090000
C        1.1374270000    -1.5075330000     0.9121090000
C        1.9736910000    -2.5843490000     1.1380620000
C        3.3018530000    -2.5715880000     0.6611770000
H        4.8257540000    -1.3912300000    -0.2954840000
H        0.1246520000    -1.5327880000     1.3084720000
H        1.6035860000    -3.4456820000     1.6989770000
H        3.9527420000    -3.4335260000     0.8251340000
C       -3.5088660000     0.9139150000     0.6713620000
C       -2.7603860000     2.0539260000     0.6742680000
C       -2.9552260000    -0.3096230000     0.1774790000
C       -1.5747220000    -0.3611140000    -0.1970940000
C       -3.7830200000    -1.4430990000    -0.0283090000
C       -3.3018520000    -2.5715890000    -0.6611770000
C       -1.9736900000    -2.5843490000    -1.1380610000
C       -1.1374260000    -1.5075340000    -0.9121090000
H       -4.5600220000     0.9329540000     0.9693340000
H       -3.2062830000     3.0124210000     0.9513920000
H       -4.8257540000    -1.3912320000     0.2954840000
H       -3.9527410000    -3.4335280000    -0.8251340000
H       -1.6035850000    -3.4456820000    -1.6989760000
H       -0.1246520000    -1.5327880000    -1.3084710000
Bq        -1.4080240501    -2.1608154824    -0.2050022188
Bq        -1.3204387019    -2.1905467019    -0.2050022188
Bq        -1.2297219556    -2.2085913846    -0.2050022188
Bq        -1.1374260000    -2.2146407812    -0.2050022188
Bq        -1.0451300444    -2.2085913846    -0.2050022188
Bq        -0.9544132981    -2.1905467019    -0.2050022188
Bq        -0.8668279499    -2.1608154824    -0.2050022188
Bq        -0.7838726094    -2.1199064357    -0.2050022188
Bq        -0.7069666654    -2.0685195268    -0.2050022188
Bq        -0.6374260000    -2.0075340000    -0.2050022188
Bq        -0.5764404732    -1.9379933346    -0.2050022188
Bq        -0.5250535643    -1.8610873906    -0.2050022188
Bq        -0.4841445176    -1.7781320501    -0.2050022188
Bq        -0.4544132981    -1.6905467019    -0.2050022188
Bq        -0.4363686154    -1.5998299556    -0.2050022188
Bq        -0.3440726597    -1.5075340000    -0.3033475710
Bq        -0.3508599075    -1.4039806094    -0.3033475710
Bq        -1.6203889131    -2.1369435226    -0.3033475710
Bq        -1.5341026701    -2.1945981469    -0.3033475710
Bq        -0.9320910460    -2.2738544808    -0.3033475710
Bq        -0.8338228207    -2.2404969131    -0.3033475710
Bq        -0.7407493299    -2.1945981469    -0.3033475710
Bq        -0.6544630869    -2.1369435226    -0.3033475710
Bq        -0.5764404732    -2.0685195268    -0.3033475710
Bq        -0.5080164774    -1.9904969131    -0.3033475710
Bq        -0.4503618531    -1.9042106701    -0.3033475710
Bq        -0.4044630869    -1.8111371793    -0.3033475710
Bq        -0.3711055192    -1.7128689540    -0.3033475710
Bq        -0.3508599075    -1.6110873906    -0.3033475710
Bq        -0.6102231376    -2.1945981469    -0.4121090000
Bq        -0.5250535643    -2.1199064357    -0.4121090000
Bq        -0.4503618531    -2.0347368624    -0.4121090000
Bq        -0.3874260000    -1.9405467019    -0.4121090000
Bq        -0.4841445176    -2.1608154824    -0.5294255676
Bq        -1.3874260000    -0.5745212981    -1.1709280451
Bq        -1.5070698106    -0.6151348992    -1.1709280451
Bq        -1.6203889131    -0.6710176963    -1.1709280451
Bq        -1.7254443863    -0.7412135192    -1.1709280451
Bq        -1.8204387019    -0.8245212981    -1.1709280451
Bq        -1.9037464808    -0.9195156137    -1.1709280451
Bq        -1.1374260000    -0.5836544675    -1.2947924324
Bq        -1.2580164774    -0.5915583850    -1.2947924324
Bq        -1.3765436184    -0.6151348992    -1.2947924324
Bq        -1.4909793906    -0.6539806094    -1.2947924324
Bq        -1.5993657663    -0.7074308548    -1.2947924324
Bq        -1.6998482244    -0.7745710869    -1.2947924324
Bq        -1.7907074824    -0.8542525176    -1.2947924324
Bq        -1.8703889131    -0.9451117756    -1.2947924324
Bq        -1.9375291452    -1.0455942337    -1.2947924324
Bq        -1.9909793906    -1.1539806094    -1.2947924324
Bq        -0.8060124260    -0.7074308548    -1.4121090000
Bq        -0.9132821320    -0.6710176963    -1.4121090000
Bq        -1.0243870017    -0.6489175636    -1.4121090000
Bq        -1.1374260000    -0.6415085962    -1.4121090000
Bq        -1.2504649983    -0.6489175636    -1.4121090000
Bq        -1.3615698680    -0.6710176963    -1.4121090000
Bq        -1.4688395740    -0.7074308548    -1.4121090000
Bq        -1.5704387019    -0.7575340000    -1.4121090000
Bq        -1.6646288624    -0.8204698531    -1.4121090000
Bq        -1.7497984357    -0.8951615643    -1.4121090000
Bq        -1.8244901469    -0.9803311376    -1.4121090000
Bq        -1.8874260000    -1.0745212981    -1.4121090000
Bq        -1.9375291452    -1.1761204260    -1.4121090000
Bq        -1.9739423037    -1.2833901320    -1.4121090000
Bq        -1.9960424364    -1.3944950017    -1.4121090000
Bq        -2.0034514038    -1.5075340000    -1.4121090000
Bq        -1.9960424364    -1.6205729983    -1.4121090000
Bq        -0.8338228207    -0.7745710869    -1.5208704290
Bq        -0.9320910460    -0.7412135192    -1.5208704290
Bq        -1.0338726094    -0.7209679075    -1.5208704290
Bq        -1.1374260000    -0.7141806597    -1.5208704290
Bq        -1.2409793906    -0.7209679075    -1.5208704290
Bq        -1.3427609540    -0.7412135192    -1.5208704290
Bq        -1.4410291793    -0.7745710869    -1.5208704290
Bq        -1.5341026701    -0.8204698531    -1.5208704290
Bq        -1.6203889131    -0.8781244774    -1.5208704290
Bq        -1.6984115268    -0.9465484732    -1.5208704290
Bq        -1.7668355226    -1.0245710869    -1.5208704290
Bq        -1.8244901469    -1.1108573299    -1.5208704290
Bq        -1.8703889131    -1.2039308207    -1.5208704290
Bq        -1.9037464808    -1.3021990460    -1.5208704290
Bq        -1.9239920925    -1.4039806094    -1.5208704290
Bq        -1.9307793403    -1.5075340000    -1.5208704290
Bq        -1.9239920925    -1.6110873906    -1.5208704290
Bq        -0.8668279499    -0.8542525176    -1.6192157812
Bq        -0.9544132981    -0.8245212981    -1.6192157812
Bq        -1.0451300444    -0.8064766154    -1.6192157812
Bq        -1.1374260000    -0.8004272188    -1.6192157812
Bq        -1.2297219556    -0.8064766154    -1.6192157812
Bq        -1.3204387019    -0.8245212981    -1.6192157812
Bq        -1.4080240501    -0.8542525176    -1.6192157812
Bq        -1.4909793906    -0.8951615643    -1.6192157812
Bq        -1.5678853346    -0.9465484732    -1.6192157812
Bq        -1.6374260000    -1.0075340000    -1.6192157812
Bq        -1.6984115268    -1.0770746654    -1.6192157812
Bq        -1.7497984357    -1.1539806094    -1.6192157812
Bq        -1.7907074824    -1.2369359499    -1.6192157812
Bq        -1.8204387019    -1.3245212981    -1.6192157812
Bq        -1.8384833846    -1.4152380444    -1.6192157812
Bq        -1.8445327812    -1.5075340000    -1.6192157812
Bq        -0.9044630869    -0.9451117756    -1.7054623403
Bq        -0.9798669482    -0.9195156137    -1.7054623403
Bq        -1.0579666887    -0.9039806094    -1.7054623403
Bq        -1.1374260000    -0.8987725710    -1.7054623403
Bq        -1.2168853113    -0.9039806094    -1.7054623403
Bq        -1.2949850518    -0.9195156137    -1.7054623403
Bq        -1.3703889131    -0.9451117756    -1.7054623403
Bq        -1.4418067145    -0.9803311376    -1.7054623403
Bq        -1.5080164774    -1.0245710869    -1.7054623403
Bq        -1.5678853346    -1.0770746654    -1.7054623403
Bq        -1.6203889131    -1.1369435226    -1.7054623403
Bq        -1.6646288624    -1.2031532855    -1.7054623403
Bq        -1.6998482244    -1.2745710869    -1.7054623403
Bq        -1.7254443863    -1.3499749482    -1.7054623403
Bq        -1.7409793906    -1.4280746887    -1.7054623403
Bq        -1.7461874290    -1.5075340000    -1.7054623403
Bq        -0.8874260000    -1.0745212981    -1.7781344038
Bq        -0.9460842838    -1.0455942337    -1.7781344038
Bq        -1.0080164774    -1.0245710869    -1.7781344038
Bq        -1.0721629039    -1.0118115693    -1.7781344038
Bq        -1.1374260000    -1.0075340000    -1.7781344038
Bq        -1.2026890961    -1.0118115693    -1.7781344038
Bq        -1.2668355226    -1.0245710869    -1.7781344038
Bq        -1.3287677162    -1.0455942337    -1.7781344038
Bq        -1.3874260000    -1.0745212981    -1.7781344038
Bq        -1.4418067145    -1.1108573299    -1.7781344038
Bq        -1.4909793906    -1.1539806094    -1.7781344038
Bq        -1.5341026701    -1.2031532855    -1.7781344038
Bq        -1.5704387019    -1.2575340000    -1.7781344038
Bq        -1.5993657663    -1.3161922838    -1.7781344038
Bq        -1.6203889131    -1.3781244774    -1.7781344038
Bq        -1.6331484307    -1.4422709039    -1.7781344038
Bq        -1.6374260000    -1.5075340000    -1.7781344038
Bq        -0.9460842838    -1.1761204260    -1.8359885325
Bq        -0.9909793906    -1.1539806094    -1.8359885325
Bq        -1.0383802395    -1.1378901894    -1.8359885325
Bq        -1.0874757887    -1.1281244774    -1.8359885325
Bq        -1.1374260000    -1.1248505676    -1.8359885325
Bq        -1.1873762113    -1.1281244774    -1.8359885325
Bq        -1.2364717605    -1.1378901894    -1.8359885325
Bq        -1.2838726094    -1.1539806094    -1.8359885325
Bq        -1.3287677162    -1.1761204260    -1.8359885325
Bq        -1.3703889131    -1.2039308207    -1.8359885325
Bq        -1.4080240501    -1.2369359499    -1.8359885325
Bq        -1.4410291793    -1.2745710869    -1.8359885325
Bq        -1.4688395740    -1.3161922838    -1.8359885325
Bq        -1.4909793906    -1.3610873906    -1.8359885325
Bq        -1.5070698106    -1.4084882395    -1.8359885325
Bq        -1.5168355226    -1.4575837887    -1.8359885325
Bq        -1.5201094324    -1.5075340000    -1.8359885325
Bq        -0.9320910460    -1.3499749482    -1.8780348263
Bq        -0.9544132981    -1.3245212981    -1.8780348263
Bq        -0.9798669482    -1.3021990460    -1.8780348263
Bq        -1.0080164774    -1.2833901320    -1.8780348263
Bq        -1.0383802395    -1.2684163816    -1.8780348263
Bq        -1.0704387019    -1.2575340000    -1.8780348263
Bq        -1.1036433356    -1.2509291877    -1.8780348263
Bq        -1.1374260000    -1.2487149549    -1.8780348263
Bq        -1.1712086644    -1.2509291877    -1.8780348263
Bq        -1.2044132981    -1.2575340000    -1.8780348263
Bq        -1.2364717605    -1.2684163816    -1.8780348263
Bq        -1.2668355226    -1.2833901320    -1.8780348263
Bq        -1.2949850518    -1.3021990460    -1.8780348263
Bq        -1.3204387019    -1.3245212981    -1.8780348263
Bq        -1.3427609540    -1.3499749482    -1.8780348263
Bq        -1.3615698680    -1.3781244774    -1.8780348263
Bq        -1.3765436184    -1.4084882395    -1.8780348263
Bq        -1.3874260000    -1.4405467019    -1.8780348263
Bq        -1.3940308123    -1.4737513356    -1.8780348263
Bq        -1.0068998078    -1.5075340000    -1.9035538614
Bq        -1.0080164774    -1.4904969131    -1.9035538614
Bq        -1.0113473799    -1.4737513356    -1.9035538614
Bq        -1.0168355226    -1.4575837887    -1.9035538614
Bq        -1.0243870017    -1.4422709039    -1.9035538614
Bq        -1.0338726094    -1.4280746887    -1.9035538614
Bq        -1.0451300444    -1.4152380444    -1.9035538614
Bq        -1.0579666887    -1.4039806094    -1.9035538614
Bq        -1.0721629039    -1.3944950017    -1.9035538614
Bq        -1.0874757887    -1.3869435226    -1.9035538614
Bq        -1.1036433356    -1.3814553799    -1.9035538614
Bq        -1.1203889131    -1.3781244774    -1.9035538614
Bq        -1.1374260000    -1.3770078078    -1.9035538614
Bq        -1.1544630869    -1.3781244774    -1.9035538614
Bq        -1.1712086644    -1.3814553799    -1.9035538614
Bq        -1.1873762113    -1.3869435226    -1.9035538614
Bq        -1.2026890961    -1.3944950017    -1.9035538614
Bq        -1.2168853113    -1.4039806094    -1.9035538614
Bq        -1.2297219556    -1.4152380444    -1.9035538614
Bq        -1.2409793906    -1.4280746887    -1.9035538614
Bq        -1.2504649983    -1.4422709039    -1.9035538614
Bq        -1.2580164774    -1.4575837887    -1.9035538614
Bq        -1.2635046201    -1.4737513356    -1.9035538614
Bq        -1.2668355226    -1.4904969131    -1.9035538614
Bq        -1.0080164774    -1.5245710869    -1.9035538614
Bq        -4.5600220000     0.9329540000     1.9693340000
Bq        -4.5600220000     0.9329540000     1.9693340000
Bq        -4.5600220000     0.9329540000     1.9693340000
Bq        -4.5600220000     0.9329540000     1.9693340000
Bq        -4.5600220000     0.9329540000     1.9693340000
Bq        -4.5600220000     0.9329540000     1.9693340000

1
2
3
4
5
6
7
8
9
10
11
12
13
14
15
16
17
18
19
20
21
22
23
24
25
26
27
28
29
30
31
32
33
34
35
36
37
38
39
40
41
42
43
44
45
46
47
48
49
50
51
52
53
54
55
56
57
58
59
60
61
62
63
64
65
66
67
68
69
70
71
72
73
74
75
76
77
78
79
80
81
82
83
84
85
86
87
88
89
90
91
92
93
94
95
96
97
98
99
100
101
102
103
104
105
106
107
108
109
110
111
112
113
114
115
116
117
118
119
120
121
122
123
124
125
126
127
128
129
130
131
132
133
134
135
136
137
138
139
140
141
142
143
144
145
146
147
148
149
150
151
152
153
154
155
156
157
158
159
160
161
162
163
164
165
166
167
168
169
170
171
172
173
174
175
176
177
178
179
180
181
182
183
184
185
186
187
188
189
190
191
192
193
194
195
196
197
198
199
200
201
202
203
204
205
206
207
208
209
210
211
212
213
214
215
216
217
218
219
220
221
222
223
224
225
226
227
228
229
230
231
232
233
234
235
236

