%OldChk=/home/aartigas/chk/5_helicene_spe.chk
%nproc=8
%mem=1000MB
#P rb3lyp/6-311+g** NMR Guess=Read geom=connectivity

Title

0 1
C        0.6532410000     3.2578590000    -0.2025100000
C       -0.6532430000     3.2578600000     0.2025100000
C        1.3724950000     2.0329560000    -0.3208070000
C       -1.3724950000     2.0329560000     0.3208070000
C        0.7224740000     0.7956660000    -0.0503880000
C       -0.7224740000     0.7956670000     0.0503870000
C        2.7603850000     2.0539270000    -0.6742680000
C        3.5088660000     0.9139160000    -0.6713620000
C        2.9552260000    -0.3096220000    -0.1774790000
C        1.5747220000    -0.3611140000     0.1970940000
H        1.1834270000     4.1957400000    -0.3845990000
H       -1.1834290000     4.1957400000     0.3845990000
H        3.2062830000     3.0124230000    -0.9513920000
H        4.5600230000     0.9329560000    -0.9693330000
C        3.7830200000    -1.4430980000     0.0283090000
C        1.1374270000    -1.5075330000     0.9121090000
C        1.9736910000    -2.5843490000     1.1380620000
C        3.3018530000    -2.5715880000     0.6611770000
H        4.8257540000    -1.3912300000    -0.2954840000
H        0.1246520000    -1.5327880000     1.3084720000
H        1.6035860000    -3.4456820000     1.6989770000
H        3.9527420000    -3.4335260000     0.8251340000
C       -3.5088660000     0.9139150000     0.6713620000
C       -2.7603860000     2.0539260000     0.6742680000
C       -2.9552260000    -0.3096230000     0.1774790000
C       -1.5747220000    -0.3611140000    -0.1970940000
C       -3.7830200000    -1.4430990000    -0.0283090000
C       -3.3018520000    -2.5715890000    -0.6611770000
C       -1.9736900000    -2.5843490000    -1.1380610000
C       -1.1374260000    -1.5075340000    -0.9121090000
H       -4.5600220000     0.9329540000     0.9693340000
H       -3.2062830000     3.0124210000     0.9513920000
H       -4.8257540000    -1.3912320000     0.2954840000
H       -3.9527410000    -3.4335280000    -0.8251340000
H       -1.6035850000    -3.4456820000    -1.6989760000
H       -0.1246520000    -1.5327880000    -1.3084710000
Bq         0.9392409499    -2.5381860501     2.1882845325
Bq         0.9768760869    -2.5711911793     2.1882845325
Bq         1.0184972838    -2.5990015740     2.1882845325
Bq         1.0633923906    -2.6211413906     2.1882845325
Bq         1.1107932395    -2.6372318106     2.1882845325
Bq         1.1598887887    -2.6469975226     2.1882845325
Bq         1.2098390000    -2.6502714324     2.1882845325
Bq         1.4428019131    -2.5711911793     2.1882845325
Bq         1.4804370501    -2.5381860501     2.1882845325
Bq         1.5134421793    -2.5005509131     2.1882845325
Bq         1.5412525740    -2.4589297162     2.1882845325
Bq         1.5633923906    -2.4140346094     2.1882845325
Bq         1.5794828106    -2.3666337605     2.1882845325
Bq         1.5892485226    -2.3175382113     2.1882845325
Bq         1.7098390000    -2.2675880000     2.1304304038
Bq         1.7055614307    -2.2023249039     2.1304304038
Bq         1.6928019131    -2.1381784774     2.1304304038
Bq         1.6717787663    -2.0762462838     2.1304304038
Bq         1.6428517019    -2.0175880000     2.1304304038
Bq         1.6065156701    -1.9632072855     2.1304304038
Bq         1.5633923906    -1.9140346094     2.1304304038
Bq         1.5142197145    -1.8709113299     2.1304304038
Bq         1.4598390000    -1.8345752981     2.1304304038
Bq         1.4011807162    -1.8056482337     2.1304304038
Bq         1.3392485226    -1.7846250869     2.1304304038
Bq         1.2751020961    -1.7718655693     2.1304304038
Bq         1.2098390000    -1.7675880000     2.1304304038
Bq         1.1445759039    -1.7718655693     2.1304304038
Bq         1.0804294774    -1.7846250869     2.1304304038
Bq         1.0184972838    -1.8056482337     2.1304304038
Bq         0.9598390000    -1.8345752981     2.1304304038
Bq         0.9054582855    -1.8709113299     2.1304304038
Bq         0.8562856094    -1.9140346094     2.1304304038
Bq         0.8131623299    -1.9632072855     2.1304304038
Bq         0.7768262981    -2.0175880000     2.1304304038
Bq         0.7478992337    -2.0762462838     2.1304304038
Bq         0.7268760869    -2.1381784774     2.1304304038
Bq         0.7141165693    -2.2023249039     2.1304304038
Bq         0.7098390000    -2.2675880000     2.1304304038
Bq         0.7141165693    -2.3328510961     2.1304304038
Bq         0.7268760869    -2.3969975226     2.1304304038
Bq         0.7478992337    -2.4589297162     2.1304304038
Bq         0.7768262981    -2.5175880000     2.1304304038
Bq         0.8131623299    -2.5719687145     2.1304304038
Bq         0.8562856094    -2.6211413906     2.1304304038
Bq         0.9054582855    -2.6642646701     2.1304304038
Bq         0.9598390000    -2.7006007019     2.1304304038
Bq         1.0184972838    -2.7295277663     2.1304304038
Bq         1.6428517019    -2.5175880000     2.1304304038
Bq         1.6717787663    -2.4589297162     2.1304304038
Bq         1.6928019131    -2.3969975226     2.1304304038
Bq         1.7055614307    -2.3328510961     2.1304304038
Bq         1.8133923906    -2.1881286887     2.0577583403
Bq         1.7978573863    -2.1100289482     2.0577583403
Bq         1.7722612244    -2.0346250869     2.0577583403
Bq         1.7370418624    -1.9632072855     2.0577583403
Bq         1.6928019131    -1.8969975226     2.0577583403
Bq         1.6402983346    -1.8371286654     2.0577583403
Bq         1.5804294774    -1.7846250869     2.0577583403
Bq         1.5142197145    -1.7403851376     2.0577583403
Bq         1.4428019131    -1.7051657756     2.0577583403
Bq         1.3673980518    -1.6795696137     2.0577583403
Bq         1.2892983113    -1.6640346094     2.0577583403
Bq         1.2098390000    -1.6588265710     2.0577583403
Bq         1.1303796887    -1.6640346094     2.0577583403
Bq         1.0522799482    -1.6795696137     2.0577583403
Bq         0.9768760869    -1.7051657756     2.0577583403
Bq         0.9054582855    -1.7403851376     2.0577583403
Bq         0.8392485226    -1.7846250869     2.0577583403
Bq         0.7793796654    -1.8371286654     2.0577583403
Bq         0.7268760869    -1.8969975226     2.0577583403
Bq         0.6826361376    -1.9632072855     2.0577583403
Bq         0.6474167756    -2.0346250869     2.0577583403
Bq         0.6218206137    -2.1100289482     2.0577583403
Bq         0.6062856094    -2.1881286887     2.0577583403
Bq         0.6010775710    -2.2675880000     2.0577583403
Bq         0.6062856094    -2.3470473113     2.0577583403
Bq         0.6218206137    -2.4251470518     2.0577583403
Bq         0.6474167756    -2.5005509131     2.0577583403
Bq         0.6826361376    -2.5719687145     2.0577583403
Bq         0.7268760869    -2.6381784774     2.0577583403
Bq         0.7793796654    -2.6980473346     2.0577583403
Bq         0.8392485226    -2.7505509131     2.0577583403
Bq         0.9054582855    -2.7947908624     2.0577583403
Bq         1.8631204824    -1.9969899499     1.9715117812
Bq         1.8222114357    -1.9140346094     1.9715117812
Bq         1.7708245268    -1.8371286654     1.9715117812
Bq         1.7098390000    -1.7675880000     1.9715117812
Bq         1.6402983346    -1.7066024732     1.9715117812
Bq         1.5633923906    -1.6552155643     1.9715117812
Bq         1.4804370501    -1.6143065176     1.9715117812
Bq         1.3928517019    -1.5845752981     1.9715117812
Bq         1.3021349556    -1.5665306154     1.9715117812
Bq         1.2098390000    -1.5604812188     1.9715117812
Bq         1.1175430444    -1.5665306154     1.9715117812
Bq         1.0268262981    -1.5845752981     1.9715117812
Bq         0.9392409499    -1.6143065176     1.9715117812
Bq         0.5027322188    -2.2675880000     1.9715117812
Bq         0.5087816154    -2.3598839556     1.9715117812
Bq         0.5268262981    -2.4506007019     1.9715117812
Bq         0.5565575176    -2.5381860501     1.9715117812
Bq         0.5974665643    -2.6211413906     1.9715117812
Bq         0.6488534732    -2.6980473346     1.9715117812
Bq         0.7098390000    -2.7675880000     1.9715117812
Bq         0.7793796654    -2.8285735268     1.9715117812
Bq         1.8969031469    -1.8709113299     1.8731664290
Bq         1.8392485226    -1.7846250869     1.8731664290
Bq         1.7708245268    -1.7066024732     1.8731664290
Bq         1.6928019131    -1.6381784774     1.8731664290
Bq         1.6065156701    -1.5805238531     1.8731664290
Bq         1.5134421793    -1.5346250869     1.8731664290
Bq         1.4151739540    -1.5012675192     1.8731664290
Bq         0.4232729075    -2.3711413906     1.8731664290
Bq         0.4435185192    -2.4729229540     1.8731664290
Bq         0.4768760869    -2.5711911793     1.8731664290
Bq         0.5227748531    -2.6642646701     1.8731664290
Bq         0.5804294774    -2.7505509131     1.8731664290
Bq         0.6488534732    -2.8285735268     1.8731664290
Bq         0.7268760869    -2.8969975226     1.8731664290
Bq         1.8969031469    -1.7403851376     1.7644050000
Bq         1.8222114357    -1.6552155643     1.7644050000
Bq         1.7370418624    -1.5805238531     1.7644050000
Bq         0.3733226963    -2.4917318680     1.7644050000
Bq         0.4097358548    -2.5990015740     1.7644050000
Bq         0.4598390000    -2.7006007019     1.7644050000
Bq         0.5227748531    -2.7947908624     1.7644050000
Bq         0.5974665643    -2.8799604357     1.7644050000
Bq         0.6826361376    -2.9546521469     1.7644050000
Bq         1.9428019131    -1.7051657756     1.6470884324
Bq         1.8631204824    -1.6143065176     1.6470884324
Bq         0.3174398992    -2.5067056184     1.6470884324
Bq         0.3562856094    -2.6211413906     1.6470884324
Bq         0.4097358548    -2.7295277663     1.6470884324
Bq         0.4768760869    -2.8300102244     1.6470884324
Bq         0.5565575176    -2.9208694824     1.6470884324
Bq         0.6474167756    -3.0005509131     1.6470884324
Bq         0.2768262981    -2.5175880000     1.5232240451
Bq         0.3174398992    -2.6372318106     1.5232240451
Bq         0.3733226963    -2.7505509131     1.5232240451
Bq         0.4435185192    -2.8556063863     1.5232240451
Bq         0.5268262981    -2.9506007019     1.5232240451
Bq         0.6218206137    -3.0339084808     1.5232240451
Bq         0.2521768031    -2.5241928123     1.3949311922
Bq         0.2938633850    -2.6469975226     1.3949311922
Bq         0.3512225636    -2.7633104307     1.3949311922
Bq         0.4232729075    -2.8711413906     1.3949311922
Bq         0.5087816154    -2.9686453846     1.3949311922
Bq         0.6062856094    -3.0541540925     1.3949311922
Bq         0.2439131737    -2.5264070451     1.2644050000
Bq         0.2859594675    -2.6502714324     1.2644050000
Bq         0.3438135962    -2.7675880000     1.2644050000
Bq         0.4164856597    -2.8763494290     1.2644050000
Bq         0.5027322188    -2.9746947812     1.2644050000
Bq         0.6010775710    -3.0609413403     1.2644050000
Bq         0.7098390000    -3.1336134038     1.2644050000
Bq         0.2521768031    -2.5241928123     1.1338788078
Bq         0.2938633850    -2.6469975226     1.1338788078
Bq         0.3512225636    -2.7633104307     1.1338788078
Bq         0.4232729075    -2.8711413906     1.1338788078
Bq         0.5087816154    -2.9686453846     1.1338788078
Bq         0.6062856094    -3.0541540925     1.1338788078
Bq         0.7141165693    -3.1262044364     1.1338788078
Bq         0.2768262981    -2.5175880000     1.0055859549
Bq         0.3174398992    -2.6372318106     1.0055859549
Bq         0.3733226963    -2.7505509131     1.0055859549
Bq         0.4435185192    -2.8556063863     1.0055859549
Bq         0.5268262981    -2.9506007019     1.0055859549
Bq         0.6218206137    -3.0339084808     1.0055859549
Bq         0.7268760869    -3.1041043037     1.0055859549
Bq         0.8401951894    -3.1599871008     1.0055859549
Bq         0.3174398992    -2.5067056184     0.8817215676
Bq         0.3562856094    -2.6211413906     0.8817215676
Bq         0.4097358548    -2.7295277663     0.8817215676
Bq         0.4768760869    -2.8300102244     0.8817215676
Bq         0.5565575176    -2.9208694824     0.8817215676
Bq         0.6474167756    -3.0005509131     0.8817215676
Bq         0.7478992337    -3.0676911452     0.8817215676
Bq         0.8562856094    -3.1211413906     0.8817215676
Bq         0.9707213816    -3.1599871008     0.8817215676
Bq         1.0892485226    -3.1835636150     0.8817215676
Bq         0.3512225636    -2.3806269983     0.7644050000
Bq         0.3733226963    -2.4917318680     0.7644050000
Bq         0.4097358548    -2.5990015740     0.7644050000
Bq         0.4598390000    -2.7006007019     0.7644050000
Bq         0.5227748531    -2.7947908624     0.7644050000
Bq         0.5974665643    -2.8799604357     0.7644050000
Bq         0.6826361376    -2.9546521469     0.7644050000
Bq         0.7768262981    -3.0175880000     0.7644050000
Bq         0.8784254260    -3.0676911452     0.7644050000
Bq         0.9856951320    -3.1041043037     0.7644050000
Bq         1.0968000017    -3.1262044364     0.7644050000
Bq         1.2098390000    -3.1336134038     0.7644050000
Bq         0.4164856597    -2.2675880000     0.6556435710
Bq         0.4232729075    -2.3711413906     0.6556435710
Bq         0.4435185192    -2.4729229540     0.6556435710
Bq         0.4768760869    -2.5711911793     0.6556435710
Bq         0.5227748531    -2.6642646701     0.6556435710
Bq         0.5804294774    -2.7505509131     0.6556435710
Bq         0.6488534732    -2.8285735268     0.6556435710
Bq         0.7268760869    -2.8969975226     0.6556435710

1
2
3
4
5
6
7
8
9
10
11
12
13
14
15
16
17
18
19
20
21
22
23
24
25
26
27
28
29
30
31
32
33
34
35
36
37
38
39
40
41
42
43
44
45
46
47
48
49
50
51
52
53
54
55
56
57
58
59
60
61
62
63
64
65
66
67
68
69
70
71
72
73
74
75
76
77
78
79
80
81
82
83
84
85
86
87
88
89
90
91
92
93
94
95
96
97
98
99
100
101
102
103
104
105
106
107
108
109
110
111
112
113
114
115
116
117
118
119
120
121
122
123
124
125
126
127
128
129
130
131
132
133
134
135
136
137
138
139
140
141
142
143
144
145
146
147
148
149
150
151
152
153
154
155
156
157
158
159
160
161
162
163
164
165
166
167
168
169
170
171
172
173
174
175
176
177
178
179
180
181
182
183
184
185
186
187
188
189
190
191
192
193
194
195
196
197
198
199
200
201
202
203
204
205
206
207
208
209
210
211
212
213
214
215
216
217
218
219
220
221
222
223
224
225
226
227
228
229
230
231
232
233
234
235
236

