%OldChk=/home/aartigas/chk/5_helicene_spe.chk
%nproc=8
%mem=1000MB
#P rb3lyp/6-311+g** NMR Guess=Read geom=connectivity

Title

0 1
C        0.6532410000     3.2578590000    -0.2025100000
C       -0.6532430000     3.2578600000     0.2025100000
C        1.3724950000     2.0329560000    -0.3208070000
C       -1.3724950000     2.0329560000     0.3208070000
C        0.7224740000     0.7956660000    -0.0503880000
C       -0.7224740000     0.7956670000     0.0503870000
C        2.7603850000     2.0539270000    -0.6742680000
C        3.5088660000     0.9139160000    -0.6713620000
C        2.9552260000    -0.3096220000    -0.1774790000
C        1.5747220000    -0.3611140000     0.1970940000
H        1.1834270000     4.1957400000    -0.3845990000
H       -1.1834290000     4.1957400000     0.3845990000
H        3.2062830000     3.0124230000    -0.9513920000
H        4.5600230000     0.9329560000    -0.9693330000
C        3.7830200000    -1.4430980000     0.0283090000
C        1.1374270000    -1.5075330000     0.9121090000
C        1.9736910000    -2.5843490000     1.1380620000
C        3.3018530000    -2.5715880000     0.6611770000
H        4.8257540000    -1.3912300000    -0.2954840000
H        0.1246520000    -1.5327880000     1.3084720000
H        1.6035860000    -3.4456820000     1.6989770000
H        3.9527420000    -3.4335260000     0.8251340000
C       -3.5088660000     0.9139150000     0.6713620000
C       -2.7603860000     2.0539260000     0.6742680000
C       -2.9552260000    -0.3096230000     0.1774790000
C       -1.5747220000    -0.3611140000    -0.1970940000
C       -3.7830200000    -1.4430990000    -0.0283090000
C       -3.3018520000    -2.5715890000    -0.6611770000
C       -1.9736900000    -2.5843490000    -1.1380610000
C       -1.1374260000    -1.5075340000    -0.9121090000
H       -4.5600220000     0.9329540000     0.9693340000
H       -3.2062830000     3.0124210000     0.9513920000
H       -4.8257540000    -1.3912320000     0.2954840000
H       -3.9527410000    -3.4335280000    -0.8251340000
H       -1.6035850000    -3.4456820000    -1.6989760000
H       -0.1246520000    -1.5327880000    -1.3084710000
Bq         5.4381264357    -2.0036024357     0.2045160000
Bq         5.5128181469    -1.9184328624     0.2045160000
Bq         5.5757540000    -1.8242427019     0.2045160000
Bq         5.6258571452    -1.7226435740     0.2045160000
Bq         5.6622703037    -1.6153738680     0.2045160000
Bq         5.6843704364    -1.5042689983     0.2045160000
Bq         5.7496335325    -1.3912300000     0.0871994324
Bq         5.7417296150    -1.2706395226     0.0871994324
Bq         5.7181531008    -1.1521123816     0.0871994324
Bq         5.6793073906    -1.0376766094     0.0871994324
Bq         5.6258571452    -0.9292902337     0.0871994324
Bq         5.5587169131    -0.8288077756     0.0871994324
Bq         5.4790354824    -0.7379485176     0.0871994324
Bq         5.3881762244    -0.6582670869     0.0871994324
Bq         5.2876937663    -0.5911268548     0.0871994324
Bq         5.1793073906    -0.5376766094     0.0871994324
Bq         5.0648716184    -0.4988308992     0.0871994324
Bq         4.9463444774    -0.4752543850     0.0871994324
Bq         4.8257540000    -0.4673504675     0.0871994324
Bq         4.9463444774    -2.3072056150     0.0871994324
Bq         5.0648716184    -2.2836291008     0.0871994324
Bq         5.1793073906    -2.2447833906     0.0871994324
Bq         5.2876937663    -2.1913331452     0.0871994324
Bq         5.3881762244    -2.1241929131     0.0871994324
Bq         5.4790354824    -2.0445114824     0.0871994324
Bq         5.5587169131    -1.9536522244     0.0871994324
Bq         5.6258571452    -1.8531697663     0.0871994324
Bq         5.6793073906    -1.7447833906     0.0871994324
Bq         5.7181531008    -1.6303476184     0.0871994324
Bq         5.7417296150    -1.5118204774     0.0871994324
Bq         5.7916798263    -1.3912300000    -0.0366649549
Bq         5.7834161969    -1.2651513799    -0.0366649549
Bq         5.7587667019    -1.1412300000    -0.0366649549
Bq         5.7181531008    -1.0215861894    -0.0366649549
Bq         5.6622703037    -0.9082670869    -0.0366649549
Bq         5.5920744808    -0.8032116137    -0.0366649549
Bq         5.5087667019    -0.7082172981    -0.0366649549
Bq         5.4137723863    -0.6249095192    -0.0366649549
Bq         5.3087169131    -0.5547136963    -0.0366649549
Bq         5.1953978106    -0.4988308992    -0.0366649549
Bq         5.0757540000    -0.4582172981    -0.0366649549
Bq         4.9518326201    -0.4335678031    -0.0366649549
Bq         4.9518326201    -2.3488921969    -0.0366649549
Bq         5.0757540000    -2.3242427019    -0.0366649549
Bq         5.1953978106    -2.2836291008    -0.0366649549
Bq         5.3087169131    -2.2277463037    -0.0366649549
Bq         5.4137723863    -2.1575504808    -0.0366649549
Bq         5.5087667019    -2.0742427019    -0.0366649549
Bq         5.5920744808    -1.9792483863    -0.0366649549
Bq         5.6622703037    -1.8741929131    -0.0366649549
Bq         5.7181531008    -1.7608738106    -0.0366649549
Bq         5.7587667019    -1.6412300000    -0.0366649549
Bq         5.7834161969    -1.5173086201    -0.0366649549
Bq         5.8171988614    -1.3912300000    -0.1649578078
Bq         5.8087169131    -1.2618204774    -0.1649578078
Bq         5.7834161969    -1.1346251877    -0.1649578078
Bq         5.7417296150    -1.0118204774    -0.1649578078
Bq         5.6843704364    -0.8955075693    -0.1649578078
Bq         5.6123200925    -0.7876766094    -0.1649578078
Bq         5.5268113846    -0.6901726154    -0.1649578078
Bq         5.4293073906    -0.6046639075    -0.1649578078
Bq         5.3214764307    -0.5326135636    -0.1649578078
Bq         5.2051635226    -0.4752543850    -0.1649578078
Bq         5.0823588123    -0.4335678031    -0.1649578078
Bq         4.9551635226    -0.4082670869    -0.1649578078
Bq         4.9551635226    -2.3741929131    -0.1649578078
Bq         5.0823588123    -2.3488921969    -0.1649578078
Bq         5.2051635226    -2.3072056150    -0.1649578078
Bq         5.3214764307    -2.2498464364    -0.1649578078
Bq         5.4293073906    -2.1777960925    -0.1649578078
Bq         5.5268113846    -2.0922873846    -0.1649578078
Bq         5.6123200925    -1.9947833906    -0.1649578078
Bq         5.6843704364    -1.8869524307    -0.1649578078
Bq         5.7417296150    -1.7706395226    -0.1649578078
Bq         5.7834161969    -1.6478348123    -0.1649578078
Bq         5.8087169131    -1.5206395226    -0.1649578078
Bq         5.8257540000    -1.3912300000    -0.2954840000
Bq         5.8171988614    -1.2607038078    -0.2954840000
Bq         5.7916798263    -1.1324109549    -0.2954840000
Bq         5.7496335325    -1.0085465676    -0.2954840000
Bq         5.6917794038    -0.8912300000    -0.2954840000
Bq         5.6191073403    -0.7824685710    -0.2954840000
Bq         5.5328607812    -0.6841232188    -0.2954840000
Bq         5.4345154290    -0.5978766597    -0.2954840000
Bq         5.3257540000    -0.5252045962    -0.2954840000
Bq         5.2084374324    -0.4673504675    -0.2954840000
Bq         5.0845730451    -0.4253041737    -0.2954840000
Bq         4.9562801922    -0.3997851386    -0.2954840000
Bq         4.8257540000    -2.3912300000    -0.2954840000
Bq         4.9562801922    -2.3826748614    -0.2954840000
Bq         5.0845730451    -2.3571558263    -0.2954840000
Bq         5.2084374324    -2.3151095325    -0.2954840000
Bq         5.3257540000    -2.2572554038    -0.2954840000
Bq         5.4345154290    -2.1845833403    -0.2954840000
Bq         5.5328607812    -2.0983367812    -0.2954840000
Bq         5.6191073403    -1.9999914290    -0.2954840000
Bq         5.6917794038    -1.8912300000    -0.2954840000
Bq         5.7496335325    -1.7739134324    -0.2954840000
Bq         5.7916798263    -1.6500490451    -0.2954840000
Bq         5.8171988614    -1.5217561922    -0.2954840000
Bq         5.8171988614    -1.3912300000    -0.4260101922
Bq         5.8087169131    -1.2618204774    -0.4260101922
Bq         5.7834161969    -1.1346251877    -0.4260101922
Bq         5.7417296150    -1.0118204774    -0.4260101922
Bq         5.6843704364    -0.8955075693    -0.4260101922
Bq         5.6123200925    -0.7876766094    -0.4260101922
Bq         5.5268113846    -0.6901726154    -0.4260101922
Bq         5.4293073906    -0.6046639075    -0.4260101922
Bq         5.3214764307    -0.5326135636    -0.4260101922
Bq         5.2051635226    -0.4752543850    -0.4260101922
Bq         5.0823588123    -0.4335678031    -0.4260101922
Bq         4.9551635226    -0.4082670869    -0.4260101922
Bq         4.6963444774    -2.3741929131    -0.4260101922
Bq         4.8257540000    -2.3826748614    -0.4260101922
Bq         4.9551635226    -2.3741929131    -0.4260101922
Bq         5.0823588123    -2.3488921969    -0.4260101922
Bq         5.2051635226    -2.3072056150    -0.4260101922
Bq         5.3214764307    -2.2498464364    -0.4260101922
Bq         5.4293073906    -2.1777960925    -0.4260101922
Bq         5.5268113846    -2.0922873846    -0.4260101922
Bq         5.6123200925    -1.9947833906    -0.4260101922
Bq         5.6843704364    -1.8869524307    -0.4260101922
Bq         5.7417296150    -1.7706395226    -0.4260101922
Bq         5.7834161969    -1.6478348123    -0.4260101922
Bq         5.8087169131    -1.5206395226    -0.4260101922
Bq         5.7916798263    -1.3912300000    -0.5543030451
Bq         5.7834161969    -1.2651513799    -0.5543030451
Bq         5.7587667019    -1.1412300000    -0.5543030451
Bq         5.7181531008    -1.0215861894    -0.5543030451
Bq         5.6622703037    -0.9082670869    -0.5543030451
Bq         5.5920744808    -0.8032116137    -0.5543030451
Bq         5.5087667019    -0.7082172981    -0.5543030451
Bq         5.4137723863    -0.6249095192    -0.5543030451
Bq         5.3087169131    -0.5547136963    -0.5543030451
Bq         5.1953978106    -0.4988308992    -0.5543030451
Bq         5.0757540000    -0.4582172981    -0.5543030451
Bq         4.9518326201    -0.4335678031    -0.5543030451
Bq         4.5757540000    -2.3242427019    -0.5543030451
Bq         4.6996753799    -2.3488921969    -0.5543030451
Bq         4.8257540000    -2.3571558263    -0.5543030451
Bq         4.9518326201    -2.3488921969    -0.5543030451
Bq         5.0757540000    -2.3242427019    -0.5543030451
Bq         5.1953978106    -2.2836291008    -0.5543030451
Bq         5.3087169131    -2.2277463037    -0.5543030451
Bq         5.4137723863    -2.1575504808    -0.5543030451
Bq         5.5087667019    -2.0742427019    -0.5543030451
Bq         5.5920744808    -1.9792483863    -0.5543030451
Bq         5.6622703037    -1.8741929131    -0.5543030451
Bq         5.7181531008    -1.7608738106    -0.5543030451
Bq         5.7587667019    -1.6412300000    -0.5543030451
Bq         5.7834161969    -1.5173086201    -0.5543030451
Bq         5.7496335325    -1.3912300000    -0.6781674324
Bq         5.7417296150    -1.2706395226    -0.6781674324
Bq         5.7181531008    -1.1521123816    -0.6781674324
Bq         5.6793073906    -1.0376766094    -0.6781674324
Bq         5.6258571452    -0.9292902337    -0.6781674324
Bq         5.5587169131    -0.8288077756    -0.6781674324
Bq         5.4790354824    -0.7379485176    -0.6781674324
Bq         5.3881762244    -0.6582670869    -0.6781674324
Bq         5.2876937663    -0.5911268548    -0.6781674324
Bq         5.1793073906    -0.5376766094    -0.6781674324
Bq         5.0648716184    -0.4988308992    -0.6781674324
Bq         4.9463444774    -0.4752543850    -0.6781674324
Bq         4.1724725176    -2.0445114824    -0.6781674324
Bq         4.2633317756    -2.1241929131    -0.6781674324
Bq         4.3638142337    -2.1913331452    -0.6781674324
Bq         4.4722006094    -2.2447833906    -0.6781674324
Bq         4.5866363816    -2.2836291008    -0.6781674324
Bq         4.7051635226    -2.3072056150    -0.6781674324
Bq         4.8257540000    -2.3151095325    -0.6781674324
Bq         4.9463444774    -2.3072056150    -0.6781674324
Bq         5.0648716184    -2.2836291008    -0.6781674324
Bq         5.1793073906    -2.2447833906    -0.6781674324
Bq         5.2876937663    -2.1913331452    -0.6781674324
Bq         5.3881762244    -2.1241929131    -0.6781674324
Bq         5.4790354824    -2.0445114824    -0.6781674324
Bq         5.5587169131    -1.9536522244    -0.6781674324
Bq         5.6258571452    -1.8531697663    -0.6781674324
Bq         5.6793073906    -1.7447833906    -0.6781674324
Bq         5.7181531008    -1.6303476184    -0.6781674324
Bq         5.7417296150    -1.5118204774    -0.6781674324
Bq         5.6917794038    -1.3912300000    -0.7954840000
Bq         5.6843704364    -1.2781910017    -0.7954840000
Bq         5.6622703037    -1.1670861320    -0.7954840000
Bq         5.6258571452    -1.0598164260    -0.7954840000
Bq         5.5757540000    -0.9582172981    -0.7954840000
Bq         5.5128181469    -0.8640271376    -0.7954840000
Bq         5.4381264357    -0.7788575643    -0.7954840000
Bq         5.3529568624    -0.7041658531    -0.7954840000
Bq         5.2587667019    -0.6412300000    -0.7954840000
Bq         5.1571675740    -0.5911268548    -0.7954840000
Bq         5.0498978680    -0.5547136963    -0.7954840000
Bq         4.9387929983    -0.5326135636    -0.7954840000
Bq         4.8257540000    -0.5252045962    -0.7954840000
Bq         4.1386898531    -1.9184328624    -0.7954840000
Bq         4.2133815643    -2.0036024357    -0.7954840000
Bq         4.2985511376    -2.0782941469    -0.7954840000
Bq         4.3927412981    -2.1412300000    -0.7954840000
Bq         4.4943404260    -2.1913331452    -0.7954840000
Bq         4.6016101320    -2.2277463037    -0.7954840000

1
2
3
4
5
6
7
8
9
10
11
12
13
14
15
16
17
18
19
20
21
22
23
24
25
26
27
28
29
30
31
32
33
34
35
36
37
38
39
40
41
42
43
44
45
46
47
48
49
50
51
52
53
54
55
56
57
58
59
60
61
62
63
64
65
66
67
68
69
70
71
72
73
74
75
76
77
78
79
80
81
82
83
84
85
86
87
88
89
90
91
92
93
94
95
96
97
98
99
100
101
102
103
104
105
106
107
108
109
110
111
112
113
114
115
116
117
118
119
120
121
122
123
124
125
126
127
128
129
130
131
132
133
134
135
136
137
138
139
140
141
142
143
144
145
146
147
148
149
150
151
152
153
154
155
156
157
158
159
160
161
162
163
164
165
166
167
168
169
170
171
172
173
174
175
176
177
178
179
180
181
182
183
184
185
186
187
188
189
190
191
192
193
194
195
196
197
198
199
200
201
202
203
204
205
206
207
208
209
210
211
212
213
214
215
216
217
218
219
220
221
222
223
224
225
226
227
228
229
230
231
232
233
234
235
236

