%OldChk=/home/aartigas/chk/5_helicene_spe.chk
%nproc=8
%mem=1000MB
#P rb3lyp/6-311+g** NMR Guess=Read geom=connectivity

Title

0 1
C        0.6532410000     3.2578590000    -0.2025100000
C       -0.6532430000     3.2578600000     0.2025100000
C        1.3724950000     2.0329560000    -0.3208070000
C       -1.3724950000     2.0329560000     0.3208070000
C        0.7224740000     0.7956660000    -0.0503880000
C       -0.7224740000     0.7956670000     0.0503870000
C        2.7603850000     2.0539270000    -0.6742680000
C        3.5088660000     0.9139160000    -0.6713620000
C        2.9552260000    -0.3096220000    -0.1774790000
C        1.5747220000    -0.3611140000     0.1970940000
H        1.1834270000     4.1957400000    -0.3845990000
H       -1.1834290000     4.1957400000     0.3845990000
H        3.2062830000     3.0124230000    -0.9513920000
H        4.5600230000     0.9329560000    -0.9693330000
C        3.7830200000    -1.4430980000     0.0283090000
C        1.1374270000    -1.5075330000     0.9121090000
C        1.9736910000    -2.5843490000     1.1380620000
C        3.3018530000    -2.5715880000     0.6611770000
H        4.8257540000    -1.3912300000    -0.2954840000
H        0.1246520000    -1.5327880000     1.3084720000
H        1.6035860000    -3.4456820000     1.6989770000
H        3.9527420000    -3.4335260000     0.8251340000
C       -3.5088660000     0.9139150000     0.6713620000
C       -2.7603860000     2.0539260000     0.6742680000
C       -2.9552260000    -0.3096230000     0.1774790000
C       -1.5747220000    -0.3611140000    -0.1970940000
C       -3.7830200000    -1.4430990000    -0.0283090000
C       -3.3018520000    -2.5715890000    -0.6611770000
C       -1.9736900000    -2.5843490000    -1.1380610000
C       -1.1374260000    -1.5075340000    -0.9121090000
H       -4.5600220000     0.9329540000     0.9693340000
H       -3.2062830000     3.0124210000     0.9513920000
H       -4.8257540000    -1.3912320000     0.2954840000
H       -3.9527410000    -3.4335280000    -0.8251340000
H       -1.6035850000    -3.4456820000    -1.6989760000
H       -0.1246520000    -1.5327880000    -1.3084710000
Bq        -4.0648875105    -2.4489796184     0.6611418263
Bq        -4.0328290481    -2.4598620000     0.6611418263
Bq        -3.9996244144    -2.4664668123     0.6611418263
Bq        -3.9658417500    -2.4686810451     0.6611418263
Bq        -3.9320590856    -2.4664668123     0.6611418263
Bq        -3.8988544519    -2.4598620000     0.6611418263
Bq        -3.8667959895    -2.4489796184     0.6611418263
Bq        -3.8364322274    -2.4340058680     0.6611418263
Bq        -3.8082826982    -2.4151969540     0.6611418263
Bq        -3.7828290481    -2.3928747019     0.6611418263
Bq        -3.7605067960    -2.3674210518     0.6611418263
Bq        -3.7416978820    -2.3392715226     0.6611418263
Bq        -3.7267241316    -2.3089077605     0.6611418263
Bq        -3.7158417500    -2.2768492981     0.6611418263
Bq        -3.7092369377    -2.2436446644     0.6611418263
Bq        -3.5831583176    -2.2098620000     0.6190955325
Bq        -4.3485251824    -2.2098620000     0.6190955325
Bq        -4.3452512726    -2.2598122113     0.6190955325
Bq        -4.3354855606    -2.3089077605     0.6190955325
Bq        -4.3193951406    -2.3563086094     0.6190955325
Bq        -4.2972553240    -2.4012037162     0.6190955325
Bq        -4.2694449293    -2.4428249131     0.6190955325
Bq        -4.2364398001    -2.4804600501     0.6190955325
Bq        -4.1988046631    -2.5134651793     0.6190955325
Bq        -4.1571834662    -2.5412755740     0.6190955325
Bq        -4.1122883594    -2.5634153906     0.6190955325
Bq        -4.0648875105    -2.5795058106     0.6190955325
Bq        -4.0157919613    -2.5892715226     0.6190955325
Bq        -3.9658417500    -2.5925454324     0.6190955325
Bq        -3.9158915387    -2.5892715226     0.6190955325
Bq        -3.8667959895    -2.5795058106     0.6190955325
Bq        -3.8193951406    -2.5634153906     0.6190955325
Bq        -3.7745000338    -2.5412755740     0.6190955325
Bq        -3.7328788369    -2.5134651793     0.6190955325
Bq        -3.6952436999    -2.4804600501     0.6190955325
Bq        -3.6622385707    -2.4428249131     0.6190955325
Bq        -3.6344281760    -2.4012037162     0.6190955325
Bq        -3.6122883594    -2.3563086094     0.6190955325
Bq        -3.5961979394    -2.3089077605     0.6190955325
Bq        -3.5864322274    -2.2598122113     0.6190955325
Bq        -3.4658417500    -2.2098620000     0.5612414038
Bq        -4.4488046631    -2.3392715226     0.5612414038
Bq        -4.4277815163    -2.4012037162     0.5612414038
Bq        -4.3988544519    -2.4598620000     0.5612414038
Bq        -4.3625184201    -2.5142427145     0.5612414038
Bq        -4.3193951406    -2.5634153906     0.5612414038
Bq        -4.2702224645    -2.6065386701     0.5612414038
Bq        -4.2158417500    -2.6428747019     0.5612414038
Bq        -4.1571834662    -2.6718017663     0.5612414038
Bq        -4.0952512726    -2.6928249131     0.5612414038
Bq        -4.0311048461    -2.7055844307     0.5612414038
Bq        -3.9658417500    -2.7098620000     0.5612414038
Bq        -3.9005786539    -2.7055844307     0.5612414038
Bq        -3.8364322274    -2.6928249131     0.5612414038
Bq        -3.7745000338    -2.6718017663     0.5612414038
Bq        -3.7158417500    -2.6428747019     0.5612414038
Bq        -3.6614610355    -2.6065386701     0.5612414038
Bq        -3.6122883594    -2.5634153906     0.5612414038
Bq        -3.5691650799    -2.5142427145     0.5612414038
Bq        -3.5328290481    -2.4598620000     0.5612414038
Bq        -3.5039019837    -2.4012037162     0.5612414038
Bq        -3.4828788369    -2.3392715226     0.5612414038
Bq        -3.4701193193    -2.2751250961     0.5612414038
Bq        -3.3570803210    -2.2098620000     0.4885693403
Bq        -4.5538601363    -2.3674210518     0.4885693403
Bq        -4.5282639744    -2.4428249131     0.4885693403
Bq        -4.4930446124    -2.5142427145     0.4885693403
Bq        -4.4488046631    -2.5804524774     0.4885693403
Bq        -4.3963010846    -2.6403213346     0.4885693403
Bq        -4.3364322274    -2.6928249131     0.4885693403
Bq        -4.2702224645    -2.7370648624     0.4885693403
Bq        -4.1988046631    -2.7722842244     0.4885693403
Bq        -4.1234008018    -2.7978803863     0.4885693403
Bq        -4.0453010613    -2.8134153906     0.4885693403
Bq        -3.9658417500    -2.8186234290     0.4885693403
Bq        -3.8863824387    -2.8134153906     0.4885693403
Bq        -3.8082826982    -2.7978803863     0.4885693403
Bq        -3.7328788369    -2.7722842244     0.4885693403
Bq        -3.6614610355    -2.7370648624     0.4885693403
Bq        -3.5952512726    -2.6928249131     0.4885693403
Bq        -3.5353824154    -2.6403213346     0.4885693403
Bq        -3.4828788369    -2.5804524774     0.4885693403
Bq        -3.4386388876    -2.5142427145     0.4885693403
Bq        -3.4034195256    -2.4428249131     0.4885693403
Bq        -3.3778233637    -2.3674210518     0.4885693403
Bq        -3.3622883594    -2.2893213113     0.4885693403
Bq        -3.2587349688    -2.2098620000     0.4023227812
Bq        -4.6488544519    -2.3928747019     0.4023227812
Bq        -4.6191232324    -2.4804600501     0.4023227812
Bq        -4.5782141857    -2.5634153906     0.4023227812
Bq        -4.5268272768    -2.6403213346     0.4023227812
Bq        -4.4658417500    -2.7098620000     0.4023227812
Bq        -4.3963010846    -2.7708475268     0.4023227812
Bq        -4.3193951406    -2.8222344357     0.4023227812
Bq        -4.2364398001    -2.8631434824     0.4023227812
Bq        -4.1488544519    -2.8928747019     0.4023227812
Bq        -4.0581377056    -2.9109193846     0.4023227812
Bq        -3.9658417500    -2.9169687812     0.4023227812
Bq        -3.8735457944    -2.9109193846     0.4023227812
Bq        -3.7828290481    -2.8928747019     0.4023227812
Bq        -3.6952436999    -2.8631434824     0.4023227812
Bq        -3.6122883594    -2.8222344357     0.4023227812
Bq        -3.5353824154    -2.7708475268     0.4023227812
Bq        -3.4658417500    -2.7098620000     0.4023227812
Bq        -3.4048562232    -2.6403213346     0.4023227812
Bq        -3.3534693143    -2.5634153906     0.4023227812
Bq        -3.3125602676    -2.4804600501     0.4023227812
Bq        -3.2828290481    -2.3928747019     0.4023227812
Bq        -3.2647843654    -2.3021579556     0.4023227812
Bq        -3.1724884097    -2.2098620000     0.3039774290
Bq        -4.7321622308    -2.4151969540     0.3039774290
Bq        -4.6988046631    -2.5134651793     0.3039774290
Bq        -4.6529058969    -2.6065386701     0.3039774290
Bq        -4.5952512726    -2.6928249131     0.3039774290
Bq        -4.5268272768    -2.7708475268     0.3039774290
Bq        -4.4488046631    -2.8392715226     0.3039774290
Bq        -4.3625184201    -2.8969261469     0.3039774290
Bq        -4.2694449293    -2.9428249131     0.3039774290
Bq        -4.1711767040    -2.9761824808     0.3039774290
Bq        -4.0693951406    -2.9964280925     0.3039774290
Bq        -3.9658417500    -3.0032153403     0.3039774290
Bq        -3.8622883594    -2.9964280925     0.3039774290
Bq        -3.7605067960    -2.9761824808     0.3039774290
Bq        -3.6622385707    -2.9428249131     0.3039774290
Bq        -3.5691650799    -2.8969261469     0.3039774290
Bq        -3.4828788369    -2.8392715226     0.3039774290
Bq        -3.1792756575    -2.3134153906     0.3039774290
Bq        -4.8023580537    -2.4340058680     0.1952160000
Bq        -4.7659448952    -2.5412755740     0.1952160000
Bq        -4.7158417500    -2.6428747019     0.1952160000
Bq        -4.6529058969    -2.7370648624     0.1952160000
Bq        -4.5782141857    -2.8222344357     0.1952160000
Bq        -4.4930446124    -2.8969261469     0.1952160000
Bq        -4.3988544519    -2.9598620000     0.1952160000
Bq        -4.2972553240    -3.0099651452     0.1952160000
Bq        -4.1899856180    -3.0463783037     0.1952160000
Bq        -4.0788807483    -3.0684784364     0.1952160000
Bq        -3.9658417500    -3.0758874038     0.1952160000
Bq        -3.8528027517    -3.0684784364     0.1952160000
Bq        -3.7416978820    -3.0463783037     0.1952160000
Bq        -3.6344281760    -3.0099651452     0.1952160000
Bq        -4.8582408508    -2.4489796184     0.0778994324
Bq        -4.8193951406    -2.5634153906     0.0778994324
Bq        -4.7659448952    -2.6718017663     0.0778994324
Bq        -4.6988046631    -2.7722842244     0.0778994324
Bq        -4.6191232324    -2.8631434824     0.0778994324
Bq        -4.5282639744    -2.9428249131     0.0778994324
Bq        -4.4277815163    -3.0099651452     0.0778994324
Bq        -4.3193951406    -3.0634153906     0.0778994324
Bq        -4.9235039469    -2.3359406201    -0.0459649549
Bq        -4.8988544519    -2.4598620000    -0.0459649549
Bq        -4.8582408508    -2.5795058106    -0.0459649549
Bq        -4.8023580537    -2.6928249131    -0.0459649549
Bq        -4.7321622308    -2.7978803863    -0.0459649549
Bq        -4.6488544519    -2.8928747019    -0.0459649549
Bq        -4.5538601363    -2.9761824808    -0.0459649549
Bq        -4.4488046631    -3.0463783037    -0.0459649549
Bq        -4.9488046631    -2.3392715226    -0.1742578078
Bq        -4.9235039469    -2.4664668123    -0.1742578078
Bq        -4.8818173650    -2.5892715226    -0.1742578078
Bq        -4.8244581864    -2.7055844307    -0.1742578078
Bq        -4.7524078425    -2.8134153906    -0.1742578078
Bq        -4.6668991346    -2.9109193846    -0.1742578078
Bq        -4.9658417500    -2.2098620000    -0.3047840000
Bq        -4.9572866114    -2.3403881922    -0.3047840000
Bq        -4.9317675763    -2.4686810451    -0.3047840000
Bq        -4.8897212825    -2.5925454324    -0.3047840000
Bq        -4.8318671538    -2.7098620000    -0.3047840000
Bq        -4.7591950903    -2.8186234290    -0.3047840000
Bq        -4.6729485312    -2.9169687812    -0.3047840000
Bq        -4.9488046631    -2.0804524774    -0.4353101922
Bq        -4.9572866114    -2.2098620000    -0.4353101922
Bq        -4.9488046631    -2.3392715226    -0.4353101922
Bq        -4.9235039469    -2.4664668123    -0.4353101922
Bq        -4.8818173650    -2.5892715226    -0.4353101922
Bq        -4.8244581864    -2.7055844307    -0.4353101922
Bq        -4.7524078425    -2.8134153906    -0.4353101922
Bq        -4.8988544519    -1.9598620000    -0.5636030451
Bq        -4.9235039469    -2.0837833799    -0.5636030451
Bq        -4.9317675763    -2.2098620000    -0.5636030451
Bq        -4.9235039469    -2.3359406201    -0.5636030451
Bq        -4.8988544519    -2.4598620000    -0.5636030451
Bq        -4.8582408508    -2.5795058106    -0.5636030451
Bq        -4.8023580537    -2.6928249131    -0.5636030451
Bq        -4.7321622308    -2.7978803863    -0.5636030451
Bq        -4.6191232324    -1.5565805176    -0.6874674324
Bq        -4.6988046631    -1.6474397756    -0.6874674324
Bq        -4.7659448952    -1.7479222337    -0.6874674324
Bq        -4.8193951406    -1.8563086094    -0.6874674324
Bq        -4.8582408508    -1.9707443816    -0.6874674324
Bq        -4.8818173650    -2.0892715226    -0.6874674324
Bq        -4.8897212825    -2.2098620000    -0.6874674324
Bq        -4.8818173650    -2.3304524774    -0.6874674324
Bq        -4.8582408508    -2.4489796184    -0.6874674324
Bq        -4.8193951406    -2.5634153906    -0.6874674324
Bq        -4.7659448952    -2.6718017663    -0.6874674324
Bq        -4.6988046631    -2.7722842244    -0.6874674324
Bq        -4.4930446124    -1.5227978531    -0.8047840000
Bq        -4.5782141857    -1.5974895643    -0.8047840000
Bq        -4.6529058969    -1.6826591376    -0.8047840000

1
2
3
4
5
6
7
8
9
10
11
12
13
14
15
16
17
18
19
20
21
22
23
24
25
26
27
28
29
30
31
32
33
34
35
36
37
38
39
40
41
42
43
44
45
46
47
48
49
50
51
52
53
54
55
56
57
58
59
60
61
62
63
64
65
66
67
68
69
70
71
72
73
74
75
76
77
78
79
80
81
82
83
84
85
86
87
88
89
90
91
92
93
94
95
96
97
98
99
100
101
102
103
104
105
106
107
108
109
110
111
112
113
114
115
116
117
118
119
120
121
122
123
124
125
126
127
128
129
130
131
132
133
134
135
136
137
138
139
140
141
142
143
144
145
146
147
148
149
150
151
152
153
154
155
156
157
158
159
160
161
162
163
164
165
166
167
168
169
170
171
172
173
174
175
176
177
178
179
180
181
182
183
184
185
186
187
188
189
190
191
192
193
194
195
196
197
198
199
200
201
202
203
204
205
206
207
208
209
210
211
212
213
214
215
216
217
218
219
220
221
222
223
224
225
226
227
228
229
230
231
232
233
234
235
236

