%OldChk=/home/aartigas/chk/5_helicene_spe.chk
%nproc=8
%mem=1000MB
#P rb3lyp/6-311+g** NMR Guess=Read geom=connectivity

Title

0 1
C        0.6532410000     3.2578590000    -0.2025100000
C       -0.6532430000     3.2578600000     0.2025100000
C        1.3724950000     2.0329560000    -0.3208070000
C       -1.3724950000     2.0329560000     0.3208070000
C        0.7224740000     0.7956660000    -0.0503880000
C       -0.7224740000     0.7956670000     0.0503870000
C        2.7603850000     2.0539270000    -0.6742680000
C        3.5088660000     0.9139160000    -0.6713620000
C        2.9552260000    -0.3096220000    -0.1774790000
C        1.5747220000    -0.3611140000     0.1970940000
H        1.1834270000     4.1957400000    -0.3845990000
H       -1.1834290000     4.1957400000     0.3845990000
H        3.2062830000     3.0124230000    -0.9513920000
H        4.5600230000     0.9329560000    -0.9693330000
C        3.7830200000    -1.4430980000     0.0283090000
C        1.1374270000    -1.5075330000     0.9121090000
C        1.9736910000    -2.5843490000     1.1380620000
C        3.3018530000    -2.5715880000     0.6611770000
H        4.8257540000    -1.3912300000    -0.2954840000
H        0.1246520000    -1.5327880000     1.3084720000
H        1.6035860000    -3.4456820000     1.6989770000
H        3.9527420000    -3.4335260000     0.8251340000
C       -3.5088660000     0.9139150000     0.6713620000
C       -2.7603860000     2.0539260000     0.6742680000
C       -2.9552260000    -0.3096230000     0.1774790000
C       -1.5747220000    -0.3611140000    -0.1970940000
C       -3.7830200000    -1.4430990000    -0.0283090000
C       -3.3018520000    -2.5715890000    -0.6611770000
C       -1.9736900000    -2.5843490000    -1.1380610000
C       -1.1374260000    -1.5075340000    -0.9121090000
H       -4.5600220000     0.9329540000     0.9693340000
H       -3.2062830000     3.0124210000     0.9513920000
H       -4.8257540000    -1.3912320000     0.2954840000
H       -3.9527410000    -3.4335280000    -0.8251340000
H       -1.6035850000    -3.4456820000    -1.6989760000
H       -0.1246520000    -1.5327880000    -1.3084710000
Bq         2.0742838184     3.8029801008    -0.1240317676
Bq         2.6014866808     3.4985993863    -0.2478961549
Bq         2.5181789019     3.5935937019    -0.2478961549
Bq         2.4231845863     3.6769014808    -0.2478961549
Bq         2.3181291131     3.7470973037    -0.2478961549
Bq         2.2048100106     3.8029801008    -0.2478961549
Bq         2.5362235846     3.6116383846    -0.3761890078
Bq         2.4387195906     3.6971470925    -0.3761890078
Bq         2.3308886307     3.7691974364    -0.3761890078
Bq         2.2145757226     3.8265566150    -0.3761890078
Bq         2.5422729812     3.6176877812    -0.5067152000
Bq         2.4439276290     3.7039343403    -0.5067152000
Bq         2.3351662000     3.7766064038    -0.5067152000
Bq         2.2178496324     3.8344605325    -0.5067152000
Bq         2.4387195906     3.6971470925    -0.6372413922
Bq         2.3308886307     3.7691974364    -0.6372413922
Bq         2.2145757226     3.8265566150    -0.6372413922
Bq         2.4231845863     3.6769014808    -0.7655342451
Bq         2.3181291131     3.7470973037    -0.7655342451
Bq         2.2048100106     3.8029801008    -0.7655342451
Bq         2.0851662000     3.8435937019    -0.7655342451
Bq         2.3975884244     3.6435439131    -0.8893986324
Bq         2.2971059663     3.7106841452    -0.8893986324
Bq         2.1887195906     3.7641343906    -0.8893986324
Bq         2.0742838184     3.8029801008    -0.8893986324
Bq         2.3623690624     3.5976451469    -1.0067152000
Bq         2.2681789019     3.6605810000    -1.0067152000
Bq         2.1665797740     3.7106841452    -1.0067152000
Bq         2.0593100680     3.7470973037    -1.0067152000
Bq         1.9482051983     3.7691974364    -1.0067152000
Bq         0.9986498963     2.6864371320    -1.0067152000
Bq         2.3181291131     3.5399905226    -1.1154766290
Bq         2.2318428701     3.5976451469    -1.1154766290
Bq         2.1387693793     3.6435439131    -1.1154766290
Bq         2.0405011540     3.6769014808    -1.1154766290
Bq         1.9387195906     3.6971470925    -1.1154766290
Bq         1.8351662000     3.7039343403    -1.1154766290
Bq         1.7316128094     3.6971470925    -1.1154766290
Bq         1.6298312460     3.6769014808    -1.1154766290
Bq         1.2741806732     3.4715665268    -1.1154766290
Bq         1.2057566774     3.3935439131    -1.1154766290
Bq         1.1481020531     3.3072576701    -1.1154766290
Bq         1.1022032869     3.2141841793    -1.1154766290
Bq         1.0688457192     3.1159159540    -1.1154766290
Bq         1.0486001075     3.0141343906    -1.1154766290
Bq         1.0418128597     2.9105810000    -1.1154766290
Bq         1.0486001075     2.8070276094    -1.1154766290
Bq         1.0688457192     2.7052460460    -1.1154766290
Bq         1.1022032869     2.6069778207    -1.1154766290
Bq         2.2656255346     3.4715665268    -1.2138219812
Bq         2.1887195906     3.5229534357    -1.2138219812
Bq         2.1057642501     3.5638624824    -1.2138219812
Bq         2.0181789019     3.5935937019    -1.2138219812
Bq         1.9274621556     3.6116383846    -1.2138219812
Bq         1.8351662000     3.6176877812    -1.2138219812
Bq         1.7428702444     3.6116383846    -1.2138219812
Bq         1.6521534981     3.5935937019    -1.2138219812
Bq         1.5645681499     3.5638624824    -1.2138219812
Bq         1.4816128094     3.5229534357    -1.2138219812
Bq         1.4047068654     3.4715665268    -1.2138219812
Bq         1.3351662000     3.4105810000    -1.2138219812
Bq         1.2741806732     3.3410403346    -1.2138219812
Bq         1.2227937643     3.2641343906    -1.2138219812
Bq         1.1818847176     3.1811790501    -1.2138219812
Bq         1.1521534981     3.0935937019    -1.2138219812
Bq         1.1341088154     3.0028769556    -1.2138219812
Bq         1.1280594188     2.9105810000    -1.2138219812
Bq         1.1341088154     2.8182850444    -1.2138219812
Bq         1.1521534981     2.7275682981    -1.2138219812
Bq         1.1818847176     2.6399829499    -1.2138219812
Bq         1.2227937643     2.5570276094    -1.2138219812
Bq         1.2741806732     2.4801216654    -1.2138219812
Bq         1.8351662000     2.2034742188    -1.2138219812
Bq         1.9274621556     2.2095236154    -1.2138219812
Bq         2.2656255346     3.3410403346    -1.3000685403
Bq         2.2057566774     3.3935439131    -1.3000685403
Bq         2.1395469145     3.4377838624    -1.3000685403
Bq         2.0681291131     3.4730032244    -1.3000685403
Bq         1.9927252518     3.4985993863    -1.3000685403
Bq         1.9146255113     3.5141343906    -1.3000685403
Bq         1.8351662000     3.5193424290    -1.3000685403
Bq         1.7557068887     3.5141343906    -1.3000685403
Bq         1.6776071482     3.4985993863    -1.3000685403
Bq         1.6022032869     3.4730032244    -1.3000685403
Bq         1.5307854855     3.4377838624    -1.3000685403
Bq         1.4645757226     3.3935439131    -1.3000685403
Bq         1.4047068654     3.3410403346    -1.3000685403
Bq         1.3522032869     3.2811714774    -1.3000685403
Bq         1.3079633376     3.2149617145    -1.3000685403
Bq         1.2727439756     3.1435439131    -1.3000685403
Bq         1.2471478137     3.0681400518    -1.3000685403
Bq         1.2316128094     2.9900403113    -1.3000685403
Bq         1.2264047710     2.9105810000    -1.3000685403
Bq         1.2316128094     2.8311216887    -1.3000685403
Bq         1.2471478137     2.7530219482    -1.3000685403
Bq         1.2727439756     2.6776180869    -1.3000685403
Bq         1.3079633376     2.6062002855    -1.3000685403
Bq         1.3522032869     2.5399905226    -1.3000685403
Bq         1.4047068654     2.4801216654    -1.3000685403
Bq         1.4645757226     2.4276180869    -1.3000685403
Bq         1.5307854855     2.3833781376    -1.3000685403
Bq         1.6022032869     2.3481587756    -1.3000685403
Bq         1.6776071482     2.3225626137    -1.3000685403
Bq         1.7557068887     2.3070276094    -1.3000685403
Bq         1.8351662000     2.3018195710    -1.3000685403
Bq         1.9146255113     2.3070276094    -1.3000685403
Bq         1.9927252518     2.3225626137    -1.3000685403
Bq         2.2971059663     3.1019227162    -1.3727406038
Bq         2.2681789019     3.1605810000    -1.3727406038
Bq         2.2318428701     3.2149617145    -1.3727406038
Bq         2.1887195906     3.2641343906    -1.3727406038
Bq         2.1395469145     3.3072576701    -1.3727406038
Bq         2.0851662000     3.3435937019    -1.3727406038
Bq         2.0265079162     3.3725207663    -1.3727406038
Bq         1.9645757226     3.3935439131    -1.3727406038
Bq         1.9004292961     3.4063034307    -1.3727406038
Bq         1.8351662000     3.4105810000    -1.3727406038
Bq         1.7699031039     3.4063034307    -1.3727406038
Bq         1.7057566774     3.3935439131    -1.3727406038
Bq         1.6438244838     3.3725207663    -1.3727406038
Bq         1.5851662000     3.3435937019    -1.3727406038
Bq         1.5307854855     3.3072576701    -1.3727406038
Bq         1.4816128094     3.2641343906    -1.3727406038
Bq         1.4384895299     3.2149617145    -1.3727406038
Bq         1.4021534981     3.1605810000    -1.3727406038
Bq         1.3732264337     3.1019227162    -1.3727406038
Bq         1.3522032869     3.0399905226    -1.3727406038
Bq         1.3394437693     2.9758440961    -1.3727406038
Bq         1.3351662000     2.9105810000    -1.3727406038
Bq         1.3394437693     2.8453179039    -1.3727406038
Bq         1.3522032869     2.7811714774    -1.3727406038
Bq         1.3732264337     2.7192392838    -1.3727406038
Bq         1.4021534981     2.6605810000    -1.3727406038
Bq         1.4384895299     2.6062002855    -1.3727406038
Bq         1.4816128094     2.5570276094    -1.3727406038
Bq         1.5307854855     2.5139043299    -1.3727406038
Bq         1.5851662000     2.4775682981    -1.3727406038
Bq         1.6438244838     2.4486412337    -1.3727406038
Bq         1.7057566774     2.4276180869    -1.3727406038
Bq         1.7699031039     2.4148585693    -1.3727406038
Bq         1.8351662000     2.4105810000    -1.3727406038
Bq         1.9004292961     2.4148585693    -1.3727406038
Bq         1.9645757226     2.4276180869    -1.3727406038
Bq         2.0265079162     2.4486412337    -1.3727406038
Bq         2.0851662000     2.4775682981    -1.3727406038
Bq         2.1395469145     2.5139043299    -1.3727406038
Bq         2.1887195906     2.5570276094    -1.3727406038
Bq         2.2318428701     2.6062002855    -1.3727406038
Bq         2.2681789019     2.6605810000    -1.3727406038
Bq         2.2971059663     2.7192392838    -1.3727406038
Bq         2.3181291131     2.7811714774    -1.3727406038
Bq         2.2178496324     2.9105810000    -1.4305947325
Bq         2.2145757226     2.9605312113    -1.4305947325
Bq         2.2048100106     3.0096267605    -1.4305947325
Bq         2.1887195906     3.0570276094    -1.4305947325
Bq         2.1665797740     3.1019227162    -1.4305947325
Bq         2.1387693793     3.1435439131    -1.4305947325
Bq         2.1057642501     3.1811790501    -1.4305947325
Bq         2.0681291131     3.2141841793    -1.4305947325
Bq         2.0265079162     3.2419945740    -1.4305947325
Bq         1.9816128094     3.2641343906    -1.4305947325
Bq         1.9342119605     3.2802248106    -1.4305947325
Bq         1.8851164113     3.2899905226    -1.4305947325
Bq         1.8351662000     3.2932644324    -1.4305947325
Bq         1.7852159887     3.2899905226    -1.4305947325
Bq         1.7361204395     3.2802248106    -1.4305947325
Bq         1.6887195906     3.2641343906    -1.4305947325
Bq         1.6438244838     3.2419945740    -1.4305947325
Bq         1.6022032869     3.2141841793    -1.4305947325
Bq         1.5645681499     3.1811790501    -1.4305947325
Bq         1.5315630207     3.1435439131    -1.4305947325
Bq         1.5037526260     3.1019227162    -1.4305947325
Bq         1.4816128094     3.0570276094    -1.4305947325
Bq         1.4655223894     3.0096267605    -1.4305947325
Bq         1.4557566774     2.9605312113    -1.4305947325
Bq         1.4524827676     2.9105810000    -1.4305947325
Bq         1.4557566774     2.8606307887    -1.4305947325
Bq         1.4655223894     2.8115352395    -1.4305947325
Bq         1.4816128094     2.7641343906    -1.4305947325
Bq         1.5037526260     2.7192392838    -1.4305947325
Bq         1.5315630207     2.6776180869    -1.4305947325
Bq         1.5645681499     2.6399829499    -1.4305947325
Bq         1.6022032869     2.6069778207    -1.4305947325
Bq         1.6438244838     2.5791674260    -1.4305947325
Bq         1.6887195906     2.5570276094    -1.4305947325
Bq         1.7361204395     2.5409371894    -1.4305947325
Bq         1.7852159887     2.5311714774    -1.4305947325
Bq         1.8351662000     2.5278975676    -1.4305947325
Bq         1.8851164113     2.5311714774    -1.4305947325
Bq         1.9342119605     2.5409371894    -1.4305947325
Bq         1.9816128094     2.5570276094    -1.4305947325
Bq         2.0265079162     2.5791674260    -1.4305947325
Bq         2.0681291131     2.6069778207    -1.4305947325
Bq         2.1057642501     2.6399829499    -1.4305947325
Bq         2.1387693793     2.6776180869    -1.4305947325
Bq         2.1665797740     2.7192392838    -1.4305947325
Bq         2.1887195906     2.7641343906    -1.4305947325
Bq         2.2048100106     2.8115352395    -1.4305947325
Bq         2.2145757226     2.8606307887    -1.4305947325
Bq         2.0939852451     2.9105810000    -1.4726410263

1
2
3
4
5
6
7
8
9
10
11
12
13
14
15
16
17
18
19
20
21
22
23
24
25
26
27
28
29
30
31
32
33
34
35
36
37
38
39
40
41
42
43
44
45
46
47
48
49
50
51
52
53
54
55
56
57
58
59
60
61
62
63
64
65
66
67
68
69
70
71
72
73
74
75
76
77
78
79
80
81
82
83
84
85
86
87
88
89
90
91
92
93
94
95
96
97
98
99
100
101
102
103
104
105
106
107
108
109
110
111
112
113
114
115
116
117
118
119
120
121
122
123
124
125
126
127
128
129
130
131
132
133
134
135
136
137
138
139
140
141
142
143
144
145
146
147
148
149
150
151
152
153
154
155
156
157
158
159
160
161
162
163
164
165
166
167
168
169
170
171
172
173
174
175
176
177
178
179
180
181
182
183
184
185
186
187
188
189
190
191
192
193
194
195
196
197
198
199
200
201
202
203
204
205
206
207
208
209
210
211
212
213
214
215
216
217
218
219
220
221
222
223
224
225
226
227
228
229
230
231
232
233
234
235
236

