%OldChk=/home/aartigas/chk/5_helicene_spe.chk
%nproc=8
%mem=1000MB
#P rb3lyp/6-311+g** NMR Guess=Read geom=connectivity

Title

0 1
C        0.6532410000     3.2578590000    -0.2025100000
C       -0.6532430000     3.2578600000     0.2025100000
C        1.3724950000     2.0329560000    -0.3208070000
C       -1.3724950000     2.0329560000     0.3208070000
C        0.7224740000     0.7956660000    -0.0503880000
C       -0.7224740000     0.7956670000     0.0503870000
C        2.7603850000     2.0539270000    -0.6742680000
C        3.5088660000     0.9139160000    -0.6713620000
C        2.9552260000    -0.3096220000    -0.1774790000
C        1.5747220000    -0.3611140000     0.1970940000
H        1.1834270000     4.1957400000    -0.3845990000
H       -1.1834290000     4.1957400000     0.3845990000
H        3.2062830000     3.0124230000    -0.9513920000
H        4.5600230000     0.9329560000    -0.9693330000
C        3.7830200000    -1.4430980000     0.0283090000
C        1.1374270000    -1.5075330000     0.9121090000
C        1.9736910000    -2.5843490000     1.1380620000
C        3.3018530000    -2.5715880000     0.6611770000
H        4.8257540000    -1.3912300000    -0.2954840000
H        0.1246520000    -1.5327880000     1.3084720000
H        1.6035860000    -3.4456820000     1.6989770000
H        3.9527420000    -3.4335260000     0.8251340000
C       -3.5088660000     0.9139150000     0.6713620000
C       -2.7603860000     2.0539260000     0.6742680000
C       -2.9552260000    -0.3096230000     0.1774790000
C       -1.5747220000    -0.3611140000    -0.1970940000
C       -3.7830200000    -1.4430990000    -0.0283090000
C       -3.3018520000    -2.5715890000    -0.6611770000
C       -1.9736900000    -2.5843490000    -1.1380610000
C       -1.1374260000    -1.5075340000    -0.9121090000
H       -4.5600220000     0.9329540000     0.9693340000
H       -3.2062830000     3.0124210000     0.9513920000
H       -4.8257540000    -1.3912320000     0.2954840000
H       -3.9527410000    -3.4335280000    -0.8251340000
H       -1.6035850000    -3.4456820000    -1.6989760000
H       -0.1246520000    -1.5327880000    -1.3084710000
Bq         2.3051045740    -1.7842458548     1.6380620000
Bq         2.1978348680    -1.7478326963     1.6380620000
Bq         2.0867299983    -1.7257325636     1.6380620000
Bq         1.9736910000    -1.7183235962     1.6380620000
Bq         2.7066539131    -2.0219267756     1.5207454324
Bq         2.6269724824    -1.9310675176     1.5207454324
Bq         2.5361132244    -1.8513860869     1.5207454324
Bq         2.4356307663    -1.7842458548     1.5207454324
Bq         2.3272443906    -1.7307956094     1.5207454324
Bq         2.2128086184    -1.6919498992     1.5207454324
Bq         2.0942814774    -1.6683733850     1.5207454324
Bq         1.9736910000    -1.6604694675     1.5207454324
Bq         2.7400114808    -1.9963306137     1.3968810451
Bq         2.6567037019    -1.9013362981     1.3968810451
Bq         2.5617093863    -1.8180285192     1.3968810451
Bq         2.0997696201    -1.6266868031     1.3968810451
Bq         2.7602570925    -1.9807956094     1.2685881922
Bq         1.2407280869    -3.1467712244     0.7553785676
Bq         1.3204095176    -3.2376304824     0.7553785676
Bq         1.2866268531    -3.1115518624     0.6380620000
Bq         1.3613185643    -3.1967214357     0.6380620000
Bq         1.4464881376    -3.2714131469     0.6380620000
Bq         1.5406782981    -3.3343490000     0.6380620000
Bq         1.6422774260    -3.3844521452     0.6380620000
Bq         1.7495471320    -3.4208653037     0.6380620000
Bq         1.8606520017    -3.4429654364     0.6380620000
Bq         1.2866268531    -2.9810256701     0.5293005710
Bq         1.3442814774    -3.0673119131     0.5293005710
Bq         1.4127054732    -3.1453345268     0.5293005710
Bq         1.4907280869    -3.2137585226     0.5293005710
Bq         1.5770143299    -3.2714131469     0.5293005710
Bq         1.6700878207    -3.3173119131     0.5293005710
Bq         1.7683560460    -3.3506694808     0.5293005710
Bq         1.8701376094    -3.3709150925     0.5293005710
Bq         1.3204095176    -2.8549470501     0.4309552188
Bq         1.3613185643    -2.9379023906     0.4309552188
Bq         1.4127054732    -3.0148083346     0.4309552188
Bq         1.4736910000    -3.0843490000     0.4309552188
Bq         1.5432316654    -3.1453345268     0.4309552188
Bq         1.6201376094    -3.1967214357     0.4309552188
Bq         1.7030929499    -3.2376304824     0.4309552188
Bq         1.7906782981    -3.2673617019     0.4309552188
Bq         1.8813950444    -3.2854063846     0.4309552188
Bq         1.9736910000    -3.2914557812     0.4309552188
Bq         1.3701376094    -2.6638083113     0.3447086597
Bq         1.3856726137    -2.7419080518     0.3447086597
Bq         1.4112687756    -2.8173119131     0.3447086597
Bq         1.4464881376    -2.8887297145     0.3447086597
Bq         1.4907280869    -2.9549394774     0.3447086597
Bq         1.5432316654    -3.0148083346     0.3447086597
Bq         1.6031005226    -3.0673119131     0.3447086597
Bq         1.6693102855    -3.1115518624     0.3447086597
Bq         1.7407280869    -3.1467712244     0.3447086597
Bq         1.8161319482    -3.1723673863     0.3447086597
Bq         1.8942316887    -3.1879023906     0.3447086597
Bq         1.9736910000    -3.1931104290     0.3447086597
Bq         2.0531503113    -3.1879023906     0.3447086597
Bq         1.7236910000    -2.1513362981     0.2720365962
Bq         1.6693102855    -2.1876723299     0.2720365962
Bq         1.6201376094    -2.2307956094     0.2720365962
Bq         1.5770143299    -2.2799682855     0.2720365962
Bq         1.5406782981    -2.3343490000     0.2720365962
Bq         1.5117512337    -2.3930072838     0.2720365962
Bq         1.4907280869    -2.4549394774     0.2720365962
Bq         1.4779685693    -2.5190859039     0.2720365962
Bq         1.4736910000    -2.5843490000     0.2720365962
Bq         1.4779685693    -2.6496120961     0.2720365962
Bq         1.4907280869    -2.7137585226     0.2720365962
Bq         1.5117512337    -2.7756907162     0.2720365962
Bq         1.5406782981    -2.8343490000     0.2720365962
Bq         1.5770143299    -2.8887297145     0.2720365962
Bq         1.6201376094    -2.9379023906     0.2720365962
Bq         1.6693102855    -2.9810256701     0.2720365962
Bq         1.7236910000    -3.0173617019     0.2720365962
Bq         1.7823492838    -3.0462887663     0.2720365962
Bq         1.8442814774    -3.0673119131     0.2720365962
Bq         1.9084279039    -3.0800714307     0.2720365962
Bq         1.9736910000    -3.0843490000     0.2720365962
Bq         2.0389540961    -3.0800714307     0.2720365962
Bq         2.1031005226    -3.0673119131     0.2720365962
Bq         2.3563744324    -2.5843490000     0.2141824675
Bq         2.3531005226    -2.5343987887     0.2141824675
Bq         2.3433348106    -2.4853032395     0.2141824675
Bq         2.3272443906    -2.4379023906     0.2141824675
Bq         1.8272443906    -2.2307956094     0.2141824675
Bq         1.7823492838    -2.2529354260     0.2141824675
Bq         1.7407280869    -2.2807458207     0.2141824675
Bq         1.7030929499    -2.3137509499     0.2141824675
Bq         1.6700878207    -2.3513860869     0.2141824675
Bq         1.6422774260    -2.3930072838     0.2141824675
Bq         1.6201376094    -2.4379023906     0.2141824675
Bq         1.6040471894    -2.4853032395     0.2141824675
Bq         1.5942814774    -2.5343987887     0.2141824675
Bq         1.5910075676    -2.5843490000     0.2141824675
Bq         1.5942814774    -2.6342992113     0.2141824675
Bq         1.6040471894    -2.6833947605     0.2141824675
Bq         1.6201376094    -2.7307956094     0.2141824675
Bq         1.6422774260    -2.7756907162     0.2141824675
Bq         1.6700878207    -2.8173119131     0.2141824675
Bq         1.7030929499    -2.8549470501     0.2141824675
Bq         1.7407280869    -2.8879521793     0.2141824675
Bq         1.7823492838    -2.9157625740     0.2141824675
Bq         1.8272443906    -2.9379023906     0.2141824675
Bq         1.8746452395    -2.9539928106     0.2141824675
Bq         1.9237407887    -2.9637585226     0.2141824675
Bq         1.9736910000    -2.9670324324     0.2141824675
Bq         2.0236412113    -2.9637585226     0.2141824675
Bq         2.0727367605    -2.9539928106     0.2141824675
Bq         2.1201376094    -2.9379023906     0.2141824675
Bq         2.1650327162    -2.9157625740     0.2141824675
Bq         2.2066539131    -2.8879521793     0.2141824675
Bq         2.3531005226    -2.6342992113     0.2141824675
Bq         2.2325100451    -2.5843490000     0.1721361737
Bq         2.2302958123    -2.5505663356     0.1721361737
Bq         2.2236910000    -2.5173617019     0.1721361737
Bq         2.2128086184    -2.4853032395     0.1721361737
Bq         2.1978348680    -2.4549394774     0.1721361737
Bq         2.1790259540    -2.4267899482     0.1721361737
Bq         2.1567037019    -2.4013362981     0.1721361737
Bq         2.1312500518    -2.3790140460     0.1721361737
Bq         2.1031005226    -2.3602051320     0.1721361737
Bq         2.0727367605    -2.3452313816     0.1721361737
Bq         2.0406782981    -2.3343490000     0.1721361737
Bq         2.0074736644    -2.3277441877     0.1721361737
Bq         1.9736910000    -2.3255299549     0.1721361737
Bq         1.9399083356    -2.3277441877     0.1721361737
Bq         1.9067037019    -2.3343490000     0.1721361737
Bq         1.8746452395    -2.3452313816     0.1721361737
Bq         1.8442814774    -2.3602051320     0.1721361737
Bq         1.8161319482    -2.3790140460     0.1721361737
Bq         1.7906782981    -2.4013362981     0.1721361737
Bq         1.7683560460    -2.4267899482     0.1721361737
Bq         1.7495471320    -2.4549394774     0.1721361737
Bq         1.7345733816    -2.4853032395     0.1721361737
Bq         1.7236910000    -2.5173617019     0.1721361737
Bq         1.7170861877    -2.5505663356     0.1721361737
Bq         1.7148719549    -2.5843490000     0.1721361737
Bq         1.7170861877    -2.6181316644     0.1721361737
Bq         1.7236910000    -2.6513362981     0.1721361737
Bq         1.7345733816    -2.6833947605     0.1721361737
Bq         1.7495471320    -2.7137585226     0.1721361737
Bq         1.7683560460    -2.7419080518     0.1721361737
Bq         1.7906782981    -2.7673617019     0.1721361737
Bq         1.8161319482    -2.7896839540     0.1721361737
Bq         1.8442814774    -2.8084928680     0.1721361737
Bq         1.8746452395    -2.8234666184     0.1721361737
Bq         1.9067037019    -2.8343490000     0.1721361737
Bq         1.9399083356    -2.8409538123     0.1721361737
Bq         1.9736910000    -2.8431680451     0.1721361737
Bq         2.0074736644    -2.8409538123     0.1721361737
Bq         2.0406782981    -2.8343490000     0.1721361737
Bq         2.0727367605    -2.8234666184     0.1721361737
Bq         2.1031005226    -2.8084928680     0.1721361737
Bq         2.1312500518    -2.7896839540     0.1721361737
Bq         2.1567037019    -2.7673617019     0.1721361737
Bq         2.1790259540    -2.7419080518     0.1721361737
Bq         2.1978348680    -2.7137585226     0.1721361737
Bq         2.2128086184    -2.6833947605     0.1721361737
Bq         2.2236910000    -2.6513362981     0.1721361737
Bq         2.2302958123    -2.6181316644     0.1721361737
Bq         2.1042171922    -2.5843490000     0.1466171386
Bq         2.1031005226    -2.5673119131     0.1466171386
Bq         2.0997696201    -2.5505663356     0.1466171386
Bq         2.0942814774    -2.5343987887     0.1466171386
Bq         2.0867299983    -2.5190859039     0.1466171386
Bq         2.0772443906    -2.5048896887     0.1466171386
Bq         2.0659869556    -2.4920530444     0.1466171386
Bq         2.0531503113    -2.4807956094     0.1466171386
Bq         2.0389540961    -2.4713100017     0.1466171386
Bq         2.0236412113    -2.4637585226     0.1466171386
Bq         2.0074736644    -2.4582703799     0.1466171386
Bq         1.9907280869    -2.4549394774     0.1466171386
Bq         1.9736910000    -2.4538228078     0.1466171386
Bq         1.9566539131    -2.4549394774     0.1466171386
Bq         1.9399083356    -2.4582703799     0.1466171386
Bq         1.9237407887    -2.4637585226     0.1466171386
Bq         1.9084279039    -2.4713100017     0.1466171386
Bq         1.8942316887    -2.4807956094     0.1466171386
Bq         1.8813950444    -2.4920530444     0.1466171386
Bq         1.8701376094    -2.5048896887     0.1466171386
Bq         1.8606520017    -2.5190859039     0.1466171386
Bq         1.8531005226    -2.5343987887     0.1466171386
Bq         1.8476123799    -2.5505663356     0.1466171386
Bq         1.8442814774    -2.5673119131     0.1466171386
Bq         1.8431648078    -2.5843490000     0.1466171386
Bq         1.8442814774    -2.6013860869     0.1466171386
Bq         1.8476123799    -2.6181316644     0.1466171386
Bq         1.8531005226    -2.6342992113     0.1466171386
Bq         1.8606520017    -2.6496120961     0.1466171386
Bq         1.8701376094    -2.6638083113     0.1466171386
Bq         1.8813950444    -2.6766449556     0.1466171386
Bq         1.8942316887    -2.6879023906     0.1466171386
Bq         1.9084279039    -2.6973879983     0.1466171386
Bq         1.9237407887    -2.7049394774     0.1466171386
Bq         1.9399083356    -2.7104276201     0.1466171386
Bq         1.9566539131    -2.7137585226     0.1466171386
Bq         1.9736910000    -2.7148751922     0.1466171386
Bq         1.9907280869    -2.7137585226     0.1466171386
Bq         2.0074736644    -2.7104276201     0.1466171386
Bq         2.0236412113    -2.7049394774     0.1466171386

1
2
3
4
5
6
7
8
9
10
11
12
13
14
15
16
17
18
19
20
21
22
23
24
25
26
27
28
29
30
31
32
33
34
35
36
37
38
39
40
41
42
43
44
45
46
47
48
49
50
51
52
53
54
55
56
57
58
59
60
61
62
63
64
65
66
67
68
69
70
71
72
73
74
75
76
77
78
79
80
81
82
83
84
85
86
87
88
89
90
91
92
93
94
95
96
97
98
99
100
101
102
103
104
105
106
107
108
109
110
111
112
113
114
115
116
117
118
119
120
121
122
123
124
125
126
127
128
129
130
131
132
133
134
135
136
137
138
139
140
141
142
143
144
145
146
147
148
149
150
151
152
153
154
155
156
157
158
159
160
161
162
163
164
165
166
167
168
169
170
171
172
173
174
175
176
177
178
179
180
181
182
183
184
185
186
187
188
189
190
191
192
193
194
195
196
197
198
199
200
201
202
203
204
205
206
207
208
209
210
211
212
213
214
215
216
217
218
219
220
221
222
223
224
225
226
227
228
229
230
231
232
233
234
235
236

