%OldChk=/home/aartigas/chk/5_helicene_spe.chk
%nproc=8
%mem=1000MB
#P rb3lyp/6-311+g** NMR Guess=Read geom=connectivity

Title

0 1
C        0.6532410000     3.2578590000    -0.2025100000
C       -0.6532430000     3.2578600000     0.2025100000
C        1.3724950000     2.0329560000    -0.3208070000
C       -1.3724950000     2.0329560000     0.3208070000
C        0.7224740000     0.7956660000    -0.0503880000
C       -0.7224740000     0.7956670000     0.0503870000
C        2.7603850000     2.0539270000    -0.6742680000
C        3.5088660000     0.9139160000    -0.6713620000
C        2.9552260000    -0.3096220000    -0.1774790000
C        1.5747220000    -0.3611140000     0.1970940000
H        1.1834270000     4.1957400000    -0.3845990000
H       -1.1834290000     4.1957400000     0.3845990000
H        3.2062830000     3.0124230000    -0.9513920000
H        4.5600230000     0.9329560000    -0.9693330000
C        3.7830200000    -1.4430980000     0.0283090000
C        1.1374270000    -1.5075330000     0.9121090000
C        1.9736910000    -2.5843490000     1.1380620000
C        3.3018530000    -2.5715880000     0.6611770000
H        4.8257540000    -1.3912300000    -0.2954840000
H        0.1246520000    -1.5327880000     1.3084720000
H        1.6035860000    -3.4456820000     1.6989770000
H        3.9527420000    -3.4335260000     0.8251340000
C       -3.5088660000     0.9139150000     0.6713620000
C       -2.7603860000     2.0539260000     0.6742680000
C       -2.9552260000    -0.3096230000     0.1774790000
C       -1.5747220000    -0.3611140000    -0.1970940000
C       -3.7830200000    -1.4430990000    -0.0283090000
C       -3.3018520000    -2.5715890000    -0.6611770000
C       -1.9736900000    -2.5843490000    -1.1380610000
C       -1.1374260000    -1.5075340000    -0.9121090000
H       -4.5600220000     0.9329540000     0.9693340000
H       -3.2062830000     3.0124210000     0.9513920000
H       -4.8257540000    -1.3912320000     0.2954840000
H       -3.9527410000    -3.4335280000    -0.8251340000
H       -1.6035850000    -3.4456820000    -1.6989760000
H       -0.1246520000    -1.5327880000    -1.3084710000
Bq        -4.7653569540     1.6992744808     0.3605725710
Bq        -4.8636251793     1.6659169131     0.3605725710
Bq        -4.9566986701     1.6200181469     0.3605725710
Bq        -5.0429849131     1.5623635226     0.3605725710
Bq        -5.1210075268     1.4939395268     0.3605725710
Bq        -5.1894315226     1.4159169131     0.3605725710
Bq        -5.2470861469     1.3296306701     0.3605725710
Bq        -5.2929849131     1.2365571793     0.3605725710
Bq        -5.3263424808     1.1382889540     0.3605725710
Bq        -5.3465880925     1.0365073906     0.3605725710
Bq        -5.3533753403     0.9329540000     0.3605725710
Bq        -5.3465880925     0.8294006094     0.3605725710
Bq        -5.3263424808     0.7276190460     0.3605725710
Bq        -5.2929849131     0.6293508207     0.3605725710
Bq        -5.2470861469     0.5362773299     0.3605725710
Bq        -5.1894315226     0.4499910869     0.3605725710
Bq        -5.1210075268     0.3719684732     0.3605725710
Bq        -5.0429849131     0.3035444774     0.3605725710
Bq        -4.9566986701     0.2458898531     0.3605725710
Bq        -4.8636251793     0.1999910869     0.3605725710
Bq        -4.3770092981     1.6159667019     0.2622272188
Bq        -4.4677260444     1.6340113846     0.2622272188
Bq        -4.5600220000     1.6400607812     0.2622272188
Bq        -4.6523179556     1.6340113846     0.2622272188
Bq        -4.7430347019     1.6159667019     0.2622272188
Bq        -4.8306200501     1.5862354824     0.2622272188
Bq        -4.9135753906     1.5453264357     0.2622272188
Bq        -4.9904813346     1.4939395268     0.2622272188
Bq        -5.0600220000     1.4329540000     0.2622272188
Bq        -5.1210075268     1.3634133346     0.2622272188
Bq        -5.1723944357     1.2865073906     0.2622272188
Bq        -5.2133034824     1.2035520501     0.2622272188
Bq        -5.2430347019     1.1159667019     0.2622272188
Bq        -5.2610793846     1.0252499556     0.2622272188
Bq        -5.2671287812     0.9329540000     0.2622272188
Bq        -5.2610793846     0.8406580444     0.2622272188
Bq        -5.2430347019     0.7499412981     0.2622272188
Bq        -5.2133034824     0.6623559499     0.2622272188
Bq        -5.1723944357     0.5794006094     0.2622272188
Bq        -5.1210075268     0.5024946654     0.2622272188
Bq        -5.0600220000     0.4329540000     0.2622272188
Bq        -4.9904813346     0.3719684732     0.2622272188
Bq        -4.9135753906     0.3205815643     0.2622272188
Bq        -4.8306200501     0.2796725176     0.2622272188
Bq        -4.2556412855     1.4601568624     0.1759806597
Bq        -4.3270590869     1.4953762244     0.1759806597
Bq        -4.4024629482     1.5209723863     0.1759806597
Bq        -4.4805626887     1.5365073906     0.1759806597
Bq        -4.5600220000     1.5417154290     0.1759806597
Bq        -4.6394813113     1.5365073906     0.1759806597
Bq        -4.7175810518     1.5209723863     0.1759806597
Bq        -4.7929849131     1.4953762244     0.1759806597
Bq        -4.8644027145     1.4601568624     0.1759806597
Bq        -4.9306124774     1.4159169131     0.1759806597
Bq        -4.9904813346     1.3634133346     0.1759806597
Bq        -5.0429849131     1.3035444774     0.1759806597
Bq        -5.0872248624     1.2373347145     0.1759806597
Bq        -5.1224442244     1.1659169131     0.1759806597
Bq        -5.1480403863     1.0905130518     0.1759806597
Bq        -5.1635753906     1.0124133113     0.1759806597
Bq        -5.1687834290     0.9329540000     0.1759806597
Bq        -5.1635753906     0.8534946887     0.1759806597
Bq        -5.1480403863     0.7753949482     0.1759806597
Bq        -5.1224442244     0.6999910869     0.1759806597
Bq        -5.0872248624     0.6285732855     0.1759806597
Bq        -5.0429849131     0.5623635226     0.1759806597
Bq        -4.9904813346     0.5024946654     0.1759806597
Bq        -4.9306124774     0.4499910869     0.1759806597
Bq        -4.8644027145     0.4057511376     0.1759806597
Bq        -4.7929849131     0.3705317756     0.1759806597
Bq        -4.7175810518     0.3449356137     0.1759806597
Bq        -4.2556412855     1.3296306701     0.1033085962
Bq        -4.3100220000     1.3659667019     0.1033085962
Bq        -4.3686802838     1.3948937663     0.1033085962
Bq        -4.4306124774     1.4159169131     0.1033085962
Bq        -4.4947589039     1.4286764307     0.1033085962
Bq        -4.5600220000     1.4329540000     0.1033085962
Bq        -4.6252850961     1.4286764307     0.1033085962
Bq        -4.6894315226     1.4159169131     0.1033085962
Bq        -4.7513637162     1.3948937663     0.1033085962
Bq        -4.8100220000     1.3659667019     0.1033085962
Bq        -4.8644027145     1.3296306701     0.1033085962
Bq        -4.9135753906     1.2865073906     0.1033085962
Bq        -4.9566986701     1.2373347145     0.1033085962
Bq        -4.9930347019     1.1829540000     0.1033085962
Bq        -5.0219617663     1.1242957162     0.1033085962
Bq        -5.0429849131     1.0623635226     0.1033085962
Bq        -5.0557444307     0.9982170961     0.1033085962
Bq        -5.0600220000     0.9329540000     0.1033085962
Bq        -5.0557444307     0.8676909039     0.1033085962
Bq        -5.0429849131     0.8035444774     0.1033085962
Bq        -5.0219617663     0.7416122838     0.1033085962
Bq        -4.9930347019     0.6829540000     0.1033085962
Bq        -4.9566986701     0.6285732855     0.1033085962
Bq        -4.9135753906     0.5794006094     0.1033085962
Bq        -4.8644027145     0.5362773299     0.1033085962
Bq        -4.8100220000     0.4999412981     0.1033085962
Bq        -4.7513637162     0.4710142337     0.1033085962
Bq        -4.6894315226     0.4499910869     0.1033085962
Bq        -4.6252850961     0.4372315693     0.1033085962
Bq        -4.2564188207     1.1659169131     0.0454544675
Bq        -4.2894239499     1.2035520501     0.0454544675
Bq        -4.3270590869     1.2365571793     0.0454544675
Bq        -4.3686802838     1.2643675740     0.0454544675
Bq        -4.4135753906     1.2865073906     0.0454544675
Bq        -4.4609762395     1.3025978106     0.0454544675
Bq        -4.5100717887     1.3123635226     0.0454544675
Bq        -4.5600220000     1.3156374324     0.0454544675
Bq        -4.6099722113     1.3123635226     0.0454544675
Bq        -4.6590677605     1.3025978106     0.0454544675
Bq        -4.7064686094     1.2865073906     0.0454544675
Bq        -4.7513637162     1.2643675740     0.0454544675
Bq        -4.7929849131     1.2365571793     0.0454544675
Bq        -4.8306200501     1.2035520501     0.0454544675
Bq        -4.8636251793     1.1659169131     0.0454544675
Bq        -4.8914355740     1.1242957162     0.0454544675
Bq        -4.9135753906     1.0794006094     0.0454544675
Bq        -4.9296658106     1.0319997605     0.0454544675
Bq        -4.9394315226     0.9829042113     0.0454544675
Bq        -4.9427054324     0.9329540000     0.0454544675
Bq        -4.9394315226     0.8830037887     0.0454544675
Bq        -4.9296658106     0.8339082395     0.0454544675
Bq        -4.9135753906     0.7865073906     0.0454544675
Bq        -4.8914355740     0.7416122838     0.0454544675
Bq        -4.8636251793     0.6999910869     0.0454544675
Bq        -4.8306200501     0.6623559499     0.0454544675
Bq        -4.7929849131     0.6293508207     0.0454544675
Bq        -4.7513637162     0.6015404260     0.0454544675
Bq        -4.7064686094     0.5794006094     0.0454544675
Bq        -4.6590677605     0.5633101894     0.0454544675
Bq        -4.6099722113     0.5535444774     0.0454544675
Bq        -4.5600220000     0.5502705676     0.0454544675
Bq        -4.5100717887     0.5535444774     0.0454544675
Bq        -4.4609762395     0.5633101894     0.0454544675
Bq        -4.4135753906     0.5794006094     0.0454544675
Bq        -4.3686802838     0.6015404260     0.0454544675
Bq        -4.3270590869     0.6293508207     0.0454544675
Bq        -4.2894239499     0.6623559499     0.0454544675
Bq        -4.3012029549     0.9329540000     0.0034081737
Bq        -4.3034171877     0.9667366644     0.0034081737
Bq        -4.3100220000     0.9999412981     0.0034081737
Bq        -4.3209043816     1.0319997605     0.0034081737
Bq        -4.3358781320     1.0623635226     0.0034081737
Bq        -4.3546870460     1.0905130518     0.0034081737
Bq        -4.3770092981     1.1159667019     0.0034081737
Bq        -4.4024629482     1.1382889540     0.0034081737
Bq        -4.4306124774     1.1570978680     0.0034081737
Bq        -4.4609762395     1.1720716184     0.0034081737
Bq        -4.4930347019     1.1829540000     0.0034081737
Bq        -4.5262393356     1.1895588123     0.0034081737
Bq        -4.5600220000     1.1917730451     0.0034081737
Bq        -4.5938046644     1.1895588123     0.0034081737
Bq        -4.6270092981     1.1829540000     0.0034081737
Bq        -4.6590677605     1.1720716184     0.0034081737
Bq        -4.6894315226     1.1570978680     0.0034081737
Bq        -4.7175810518     1.1382889540     0.0034081737
Bq        -4.7430347019     1.1159667019     0.0034081737
Bq        -4.7653569540     1.0905130518     0.0034081737
Bq        -4.7841658680     1.0623635226     0.0034081737
Bq        -4.7991396184     1.0319997605     0.0034081737
Bq        -4.8100220000     0.9999412981     0.0034081737
Bq        -4.8166268123     0.9667366644     0.0034081737
Bq        -4.8188410451     0.9329540000     0.0034081737
Bq        -4.8166268123     0.8991713356     0.0034081737
Bq        -4.8100220000     0.8659667019     0.0034081737
Bq        -4.7991396184     0.8339082395     0.0034081737
Bq        -4.7841658680     0.8035444774     0.0034081737
Bq        -4.7653569540     0.7753949482     0.0034081737
Bq        -4.7430347019     0.7499412981     0.0034081737
Bq        -4.7175810518     0.7276190460     0.0034081737
Bq        -4.6894315226     0.7088101320     0.0034081737
Bq        -4.6590677605     0.6938363816     0.0034081737
Bq        -4.6270092981     0.6829540000     0.0034081737
Bq        -4.5938046644     0.6763491877     0.0034081737
Bq        -4.5600220000     0.6741349549     0.0034081737
Bq        -4.5262393356     0.6763491877     0.0034081737
Bq        -4.4930347019     0.6829540000     0.0034081737
Bq        -4.4609762395     0.6938363816     0.0034081737
Bq        -4.4306124774     0.7088101320     0.0034081737
Bq        -4.4024629482     0.7276190460     0.0034081737
Bq        -4.3770092981     0.7499412981     0.0034081737
Bq        -4.3546870460     0.7753949482     0.0034081737
Bq        -4.3358781320     0.8035444774     0.0034081737
Bq        -4.3209043816     0.8339082395     0.0034081737
Bq        -4.3100220000     0.8659667019     0.0034081737
Bq        -4.3034171877     0.8991713356     0.0034081737
Bq        -4.4294958078     0.9329540000    -0.0221108614
Bq        -4.4306124774     0.9499910869    -0.0221108614
Bq        -4.4339433799     0.9667366644    -0.0221108614
Bq        -4.4394315226     0.9829042113    -0.0221108614
Bq        -4.4469830017     0.9982170961    -0.0221108614
Bq        -4.4564686094     1.0124133113    -0.0221108614
Bq        -4.4677260444     1.0252499556    -0.0221108614
Bq        -4.4805626887     1.0365073906    -0.0221108614
Bq        -4.4947589039     1.0459929983    -0.0221108614
Bq        -4.5100717887     1.0535444774    -0.0221108614
Bq        -4.5262393356     1.0590326201    -0.0221108614
Bq        -4.5429849131     1.0623635226    -0.0221108614
Bq        -4.5600220000     1.0634801922    -0.0221108614
Bq        -4.5770590869     1.0623635226    -0.0221108614

1
2
3
4
5
6
7
8
9
10
11
12
13
14
15
16
17
18
19
20
21
22
23
24
25
26
27
28
29
30
31
32
33
34
35
36
37
38
39
40
41
42
43
44
45
46
47
48
49
50
51
52
53
54
55
56
57
58
59
60
61
62
63
64
65
66
67
68
69
70
71
72
73
74
75
76
77
78
79
80
81
82
83
84
85
86
87
88
89
90
91
92
93
94
95
96
97
98
99
100
101
102
103
104
105
106
107
108
109
110
111
112
113
114
115
116
117
118
119
120
121
122
123
124
125
126
127
128
129
130
131
132
133
134
135
136
137
138
139
140
141
142
143
144
145
146
147
148
149
150
151
152
153
154
155
156
157
158
159
160
161
162
163
164
165
166
167
168
169
170
171
172
173
174
175
176
177
178
179
180
181
182
183
184
185
186
187
188
189
190
191
192
193
194
195
196
197
198
199
200
201
202
203
204
205
206
207
208
209
210
211
212
213
214
215
216
217
218
219
220
221
222
223
224
225
226
227
228
229
230
231
232
233
234
235
236

