%OldChk=/home/aartigas/chk/5_helicene_spe.chk
%nproc=8
%mem=1000MB
#P rb3lyp/6-311+g** NMR Guess=Read geom=connectivity

Title

0 1
C        0.6532410000     3.2578590000    -0.2025100000
C       -0.6532430000     3.2578600000     0.2025100000
C        1.3724950000     2.0329560000    -0.3208070000
C       -1.3724950000     2.0329560000     0.3208070000
C        0.7224740000     0.7956660000    -0.0503880000
C       -0.7224740000     0.7956670000     0.0503870000
C        2.7603850000     2.0539270000    -0.6742680000
C        3.5088660000     0.9139160000    -0.6713620000
C        2.9552260000    -0.3096220000    -0.1774790000
C        1.5747220000    -0.3611140000     0.1970940000
H        1.1834270000     4.1957400000    -0.3845990000
H       -1.1834290000     4.1957400000     0.3845990000
H        3.2062830000     3.0124230000    -0.9513920000
H        4.5600230000     0.9329560000    -0.9693330000
C        3.7830200000    -1.4430980000     0.0283090000
C        1.1374270000    -1.5075330000     0.9121090000
C        1.9736910000    -2.5843490000     1.1380620000
C        3.3018530000    -2.5715880000     0.6611770000
H        4.8257540000    -1.3912300000    -0.2954840000
H        0.1246520000    -1.5327880000     1.3084720000
H        1.6035860000    -3.4456820000     1.6989770000
H        3.9527420000    -3.4335260000     0.8251340000
C       -3.5088660000     0.9139150000     0.6713620000
C       -2.7603860000     2.0539260000     0.6742680000
C       -2.9552260000    -0.3096230000     0.1774790000
C       -1.5747220000    -0.3611140000    -0.1970940000
C       -3.7830200000    -1.4430990000    -0.0283090000
C       -3.3018520000    -2.5715890000    -0.6611770000
C       -1.9736900000    -2.5843490000    -1.1380610000
C       -1.1374260000    -1.5075340000    -0.9121090000
H       -4.5600220000     0.9329540000     0.9693340000
H       -3.2062830000     3.0124210000     0.9513920000
H       -4.8257540000    -1.3912320000     0.2954840000
H       -3.9527410000    -3.4335280000    -0.8251340000
H       -1.6035850000    -3.4456820000    -1.6989760000
H       -0.1246520000    -1.5327880000    -1.3084710000
Bq         2.0389540961    -2.6973879983     0.1466171386
Bq         2.0531503113    -2.6879023906     0.1466171386
Bq         2.0659869556    -2.6766449556     0.1466171386
Bq         2.0772443906    -2.6638083113     0.1466171386
Bq         2.0867299983    -2.6496120961     0.1466171386
Bq         2.0942814774    -2.6342992113     0.1466171386
Bq         2.0997696201    -2.6181316644     0.1466171386
Bq         2.1031005226    -2.6013860869     0.1466171386
Bq         3.4323791922    -2.5715880000     1.6526218614
Bq         3.4312625226    -2.5545509131     1.6526218614
Bq         3.4279316201    -2.5378053356     1.6526218614
Bq         3.4224434774    -2.5216377887     1.6526218614
Bq         3.4148919983    -2.5063249039     1.6526218614
Bq         3.4054063906    -2.4921286887     1.6526218614
Bq         3.3941489556    -2.4792920444     1.6526218614
Bq         3.3813123113    -2.4680346094     1.6526218614
Bq         3.3671160961    -2.4585490017     1.6526218614
Bq         3.3518032113    -2.4509975226     1.6526218614
Bq         3.3356356644    -2.4455093799     1.6526218614
Bq         3.3188900869    -2.4421784774     1.6526218614
Bq         3.3018530000    -2.4410618078     1.6526218614
Bq         3.4279316201    -2.6053706644     1.6526218614
Bq         3.4312625226    -2.5886250869     1.6526218614
Bq         3.5606720451    -2.5715880000     1.6271028263
Bq         3.5584578123    -2.5378053356     1.6271028263
Bq         3.5518530000    -2.5046007019     1.6271028263
Bq         3.5409706184    -2.4725422395     1.6271028263
Bq         3.5259968680    -2.4421784774     1.6271028263
Bq         3.5071879540    -2.4140289482     1.6271028263
Bq         3.4848657019    -2.3885752981     1.6271028263
Bq         3.4594120518    -2.3662530460     1.6271028263
Bq         3.4312625226    -2.3474441320     1.6271028263
Bq         3.4008987605    -2.3324703816     1.6271028263
Bq         3.3688402981    -2.3215880000     1.6271028263
Bq         3.3356356644    -2.3149831877     1.6271028263
Bq         3.3018530000    -2.3127689549     1.6271028263
Bq         3.2680703356    -2.3149831877     1.6271028263
Bq         3.2348657019    -2.3215880000     1.6271028263
Bq         3.2028072395    -2.3324703816     1.6271028263
Bq         3.5071879540    -2.7291470518     1.6271028263
Bq         3.5259968680    -2.7009975226     1.6271028263
Bq         3.5409706184    -2.6706337605     1.6271028263
Bq         3.5518530000    -2.6385752981     1.6271028263
Bq         3.5584578123    -2.6053706644     1.6271028263
Bq         3.6845364324    -2.5715880000     1.5850565325
Bq         3.6812625226    -2.5216377887     1.5850565325
Bq         3.6714968106    -2.4725422395     1.5850565325
Bq         3.6554063906    -2.4251413906     1.5850565325
Bq         3.6332665740    -2.3802462838     1.5850565325
Bq         3.6054561793    -2.3386250869     1.5850565325
Bq         3.5724510501    -2.3009899499     1.5850565325
Bq         3.5348159131    -2.2679848207     1.5850565325
Bq         3.4931947162    -2.2401744260     1.5850565325
Bq         3.4482996094    -2.2180346094     1.5850565325
Bq         3.4008987605    -2.2019441894     1.5850565325
Bq         3.3518032113    -2.1921784774     1.5850565325
Bq         3.3018530000    -2.1889045676     1.5850565325
Bq         3.2519027887    -2.1921784774     1.5850565325
Bq         3.2028072395    -2.2019441894     1.5850565325
Bq         3.1554063906    -2.2180346094     1.5850565325
Bq         3.1105112838    -2.2401744260     1.5850565325
Bq         3.5724510501    -2.8421860501     1.5850565325
Bq         3.6054561793    -2.8045509131     1.5850565325
Bq         3.6332665740    -2.7629297162     1.5850565325
Bq         3.6554063906    -2.7180346094     1.5850565325
Bq         3.6714968106    -2.6706337605     1.5850565325
Bq         3.6812625226    -2.6215382113     1.5850565325
Bq         3.8018530000    -2.5715880000     1.5272024038
Bq         3.7975754307    -2.5063249039     1.5272024038
Bq         3.7848159131    -2.4421784774     1.5272024038
Bq         3.7637927663    -2.3802462838     1.5272024038
Bq         3.7348657019    -2.3215880000     1.5272024038
Bq         3.6985296701    -2.2672072855     1.5272024038
Bq         3.6554063906    -2.2180346094     1.5272024038
Bq         3.6062337145    -2.1749113299     1.5272024038
Bq         3.5518530000    -2.1385752981     1.5272024038
Bq         3.4931947162    -2.1096482337     1.5272024038
Bq         3.4312625226    -2.0886250869     1.5272024038
Bq         3.3671160961    -2.0758655693     1.5272024038
Bq         3.3018530000    -2.0715880000     1.5272024038
Bq         3.2365899039    -2.0758655693     1.5272024038
Bq         3.1724434774    -2.0886250869     1.5272024038
Bq         3.1105112838    -2.1096482337     1.5272024038
Bq         3.0518530000    -2.1385752981     1.5272024038
Bq         3.7848159131    -2.7009975226     1.5272024038
Bq         3.7975754307    -2.6368510961     1.5272024038
Bq         3.9106144290    -2.5715880000     1.4545303403
Bq         3.9054063906    -2.4921286887     1.4545303403
Bq         3.8898713863    -2.4140289482     1.4545303403
Bq         3.8642752244    -2.3386250869     1.4545303403
Bq         3.8290558624    -2.2672072855     1.4545303403
Bq         3.7848159131    -2.2009975226     1.4545303403
Bq         3.7323123346    -2.1411286654     1.4545303403
Bq         3.6724434774    -2.0886250869     1.4545303403
Bq         3.6062337145    -2.0443851376     1.4545303403
Bq         3.5348159131    -2.0091657756     1.4545303403
Bq         3.4594120518    -1.9835696137     1.4545303403
Bq         3.3813123113    -1.9680346094     1.4545303403
Bq         3.3018530000    -1.9628265710     1.4545303403
Bq         3.2223936887    -1.9680346094     1.4545303403
Bq         3.1442939482    -1.9835696137     1.4545303403
Bq         3.0688900869    -2.0091657756     1.4545303403
Bq         2.9974722855    -2.0443851376     1.4545303403
Bq         2.9312625226    -2.0886250869     1.4545303403
Bq         3.9054063906    -2.6510473113     1.4545303403
Bq         4.0089597812    -2.5715880000     1.3682837812
Bq         4.0029103846    -2.4792920444     1.3682837812
Bq         3.9848657019    -2.3885752981     1.3682837812
Bq         3.9551344824    -2.3009899499     1.3682837812
Bq         3.9142254357    -2.2180346094     1.3682837812
Bq         3.8628385268    -2.1411286654     1.3682837812
Bq         3.8018530000    -2.0715880000     1.3682837812
Bq         3.7323123346    -2.0106024732     1.3682837812
Bq         3.6554063906    -1.9592155643     1.3682837812
Bq         3.5724510501    -1.9183065176     1.3682837812
Bq         3.4848657019    -1.8885752981     1.3682837812
Bq         3.3941489556    -1.8705306154     1.3682837812
Bq         3.3018530000    -1.8644812188     1.3682837812
Bq         3.2095570444    -1.8705306154     1.3682837812
Bq         3.1188402981    -1.8885752981     1.3682837812
Bq         3.0312549499    -1.9183065176     1.3682837812
Bq         2.9482996094    -1.9592155643     1.3682837812
Bq         2.8713936654    -2.0106024732     1.3682837812
Bq         4.0884190925    -2.4680346094     1.2699384290
Bq         3.7848159131    -1.9421784774     1.2699384290
Bq         3.6985296701    -1.8845238531     1.2699384290
Bq         3.6054561793    -1.8386250869     1.2699384290
Bq         3.5071879540    -1.8052675192     1.2699384290
Bq         3.4054063906    -1.7850219075     1.2699384290
Bq         3.3018530000    -1.7782346597     1.2699384290
Bq         3.1982996094    -1.7850219075     1.2699384290
Bq         3.0965180460    -1.8052675192     1.2699384290
Bq         2.9982498207    -1.8386250869     1.2699384290
Bq         2.9051763299    -1.8845238531     1.2699384290
Bq         2.8188900869    -1.9421784774     1.2699384290
Bq         3.6332665740    -1.7714848548     1.1611770000
Bq         3.5259968680    -1.7350716963     1.1611770000
Bq         3.4148919983    -1.7129715636     1.1611770000
Bq         3.3018530000    -1.7055625962     1.1611770000
Bq         3.1888140017    -1.7129715636     1.1611770000
Bq         3.5409706184    -1.6791888992     1.0438604324
Bq         3.4224434774    -1.6556123850     1.0438604324
Bq         3.3018530000    -1.6477084675     1.0438604324
Bq         2.4432365636    -2.4585490017     0.1611770000
Bq         2.4358275962    -2.5715880000     0.1611770000
Bq         2.4432365636    -2.6846269983     0.1611770000
Bq         2.9704394260    -3.3716911452     0.1611770000
Bq         3.0777091320    -3.4081043037     0.1611770000
Bq         3.1888140017    -3.4302044364     0.1611770000
Bq         2.5152869075    -2.4680346094     0.0524155710
Bq         2.5084996597    -2.5715880000     0.0524155710
Bq         2.5152869075    -2.6751413906     0.0524155710
Bq         2.5355325192    -2.7769229540     0.0524155710
Bq         2.5688900869    -2.8751911793     0.0524155710
Bq         2.6147888531    -2.9682646701     0.0524155710
Bq         2.6724434774    -3.0545509131     0.0524155710
Bq         2.7408674732    -3.1325735268     0.0524155710
Bq         2.8188900869    -3.2009975226     0.0524155710
Bq         2.9051763299    -3.2586521469     0.0524155710
Bq         2.9982498207    -3.3045509131     0.0524155710
Bq         3.0965180460    -3.3379084808     0.0524155710
Bq         3.1982996094    -3.3581540925     0.0524155710
Bq         3.3018530000    -3.3649413403     0.0524155710
Bq         2.6188402981    -2.3885752981    -0.0459297812
Bq         2.6007956154    -2.4792920444    -0.0459297812
Bq         2.5947462188    -2.5715880000    -0.0459297812
Bq         2.6007956154    -2.6638839556    -0.0459297812
Bq         2.6188402981    -2.7546007019    -0.0459297812
Bq         2.6485715176    -2.8421860501    -0.0459297812
Bq         2.6894805643    -2.9251413906    -0.0459297812
Bq         2.7408674732    -3.0020473346    -0.0459297812
Bq         2.8018530000    -3.0715880000    -0.0459297812
Bq         2.8713936654    -3.1325735268    -0.0459297812
Bq         2.9482996094    -3.1839604357    -0.0459297812
Bq         3.0312549499    -3.2248694824    -0.0459297812
Bq         3.1188402981    -3.2546007019    -0.0459297812
Bq         3.2095570444    -3.2726453846    -0.0459297812
Bq         3.3018530000    -3.2786947812    -0.0459297812
Bq         3.3941489556    -3.2726453846    -0.0459297812
Bq         3.4848657019    -3.2546007019    -0.0459297812
Bq         2.8188900869    -2.2009975226    -0.1321763403
Bq         2.7746501376    -2.2672072855    -0.1321763403
Bq         2.7394307756    -2.3386250869    -0.1321763403
Bq         2.7138346137    -2.4140289482    -0.1321763403
Bq         2.6982996094    -2.4921286887    -0.1321763403
Bq         2.6930915710    -2.5715880000    -0.1321763403
Bq         2.6982996094    -2.6510473113    -0.1321763403
Bq         2.7138346137    -2.7291470518    -0.1321763403
Bq         2.7394307756    -2.8045509131    -0.1321763403
Bq         2.7746501376    -2.8759687145    -0.1321763403
Bq         2.8188900869    -2.9421784774    -0.1321763403
Bq         2.8713936654    -3.0020473346    -0.1321763403
Bq         2.9312625226    -3.0545509131    -0.1321763403
Bq         2.9974722855    -3.0987908624    -0.1321763403
Bq         3.0688900869    -3.1340102244    -0.1321763403
Bq         3.1442939482    -3.1596063863    -0.1321763403
Bq         3.2223936887    -3.1751413906    -0.1321763403
Bq         3.3018530000    -3.1803494290    -0.1321763403
Bq         3.3813123113    -3.1751413906    -0.1321763403
Bq         3.4594120518    -3.1596063863    -0.1321763403

1
2
3
4
5
6
7
8
9
10
11
12
13
14
15
16
17
18
19
20
21
22
23
24
25
26
27
28
29
30
31
32
33
34
35
36
37
38
39
40
41
42
43
44
45
46
47
48
49
50
51
52
53
54
55
56
57
58
59
60
61
62
63
64
65
66
67
68
69
70
71
72
73
74
75
76
77
78
79
80
81
82
83
84
85
86
87
88
89
90
91
92
93
94
95
96
97
98
99
100
101
102
103
104
105
106
107
108
109
110
111
112
113
114
115
116
117
118
119
120
121
122
123
124
125
126
127
128
129
130
131
132
133
134
135
136
137
138
139
140
141
142
143
144
145
146
147
148
149
150
151
152
153
154
155
156
157
158
159
160
161
162
163
164
165
166
167
168
169
170
171
172
173
174
175
176
177
178
179
180
181
182
183
184
185
186
187
188
189
190
191
192
193
194
195
196
197
198
199
200
201
202
203
204
205
206
207
208
209
210
211
212
213
214
215
216
217
218
219
220
221
222
223
224
225
226
227
228
229
230
231
232
233
234
235
236

