%nproc=8
# rb3lyp/6-311+g** NMR

Title

0 1
C       -4.050055800     -0.577186200      0.813671200
H       -5.026380400     -1.008272700      1.002476000
C       -3.938155200      0.661780400      0.240087600
H       -4.825242400      1.233889000     -0.011129500
C       -2.676841000      1.243324600      0.005757800
C       -1.497412100      0.505152700      0.284825300
C       -1.650833200     -0.733872800      0.940402600
H       -0.771364600     -1.273096700      1.263375300
C       -2.889854800     -1.262403500      1.199430700
H       -2.968370600     -2.212456300      1.715267600
C       -2.577318500      2.596369600     -0.419293000
H       -3.487072800      3.141223900     -0.647405500
C       -1.374189500      3.214789600     -0.436403000
H       -1.299731500      4.274201900     -0.657814400
C       -0.171948800      2.499409000     -0.173458800
C       -0.204391700      1.101843700      0.019268900
C        1.051349100      3.204256000     -0.067622200
H        1.042734400      4.281949900     -0.189699700
C        2.194209100      2.548744600      0.257957700
H        3.116852700      3.091284800      0.433472700
C        2.221647300      1.133656200      0.293499000
C        1.048693100      0.394552800      0.030241200
C        3.448336300      0.461463300      0.557393900
H        4.309579400      1.060605400      0.833484600
C        3.542734600     -0.885592600      0.474946300
H        4.473146700     -1.393970400      0.703882200
C        2.449005200     -1.647444700     -0.019631900
C        1.215070400     -1.005725800     -0.301357300
C        0.253111300     -1.743444000     -1.021659100
H       -0.654135600     -1.253505100     -1.346284700
C        0.449419300     -3.062859700     -1.341377900
H       -0.308316200     -3.594430900     -1.905406000
C        1.625172600     -3.720796700     -0.955254100
H        1.767004800     -4.768740400     -1.192701900
C        2.610987200     -3.014417700     -0.318305000
H        3.552561200     -3.490281300     -0.064636700
Bq         1.4337943333    -2.3657814333    -0.6595975500
Bq        -0.9658833031    -5.0417625122    -1.4216162550
Bq        -1.0209156699    -4.5597975986    -1.3004500027
Bq        -1.0759480368    -4.0778326851    -1.1792837505
Bq        -1.1309804037    -3.5958677715    -1.0581174982
Bq        -1.1860127705    -3.1139028580    -0.9369512459
Bq        -1.2410451374    -2.6319379444    -0.8157849936
Bq        -1.2960775042    -2.1499730308    -0.6946187413
Bq        -1.3511098711    -1.6680081173    -0.5734524890
Bq        -1.4061422380    -1.1860432037    -0.4522862367
Bq        -1.4611746048    -0.7040782902    -0.3311199844
Bq        -0.5106389365    -5.0417625122    -1.2148493169
Bq        -0.5656713034    -4.5597975986    -1.0936830646
Bq        -0.6207036702    -4.0778326851    -0.9725168123
Bq        -0.6757360371    -3.5958677715    -0.8513505600
Bq        -0.7307684040    -3.1139028580    -0.7301843077
Bq        -0.7858007708    -2.6319379444    -0.6090180554
Bq        -0.8408331377    -2.1499730308    -0.4878518031
Bq        -0.8958655045    -1.6680081173    -0.3666855509
Bq        -0.9508978714    -1.1860432037    -0.2455192986
Bq        -1.0059302383    -0.7040782902    -0.1243530463
Bq        -0.0553945699    -5.0417625122    -1.0080823787
Bq        -0.1104269368    -4.5597975986    -0.8869161265
Bq        -0.1654593037    -4.0778326851    -0.7657498742
Bq        -0.2204916705    -3.5958677715    -0.6445836219
Bq        -0.2755240374    -3.1139028580    -0.5234173696
Bq        -0.3305564042    -2.6319379444    -0.4022511173
Bq        -0.3855887711    -2.1499730308    -0.2810848650
Bq        -0.4406211380    -1.6680081173    -0.1599186127
Bq        -0.4956535048    -1.1860432037    -0.0387523604
Bq        -0.5506858717    -0.7040782902     0.0824138919
Bq         0.3998497966    -5.0417625122    -0.8013154406
Bq         0.3448174298    -4.5597975986    -0.6801491883
Bq         0.2897850629    -4.0778326851    -0.5589829360
Bq         0.2347526960    -3.5958677715    -0.4378166837
Bq         0.1797203292    -3.1139028580    -0.3166504314
Bq         0.1246879623    -2.6319379444    -0.1954841792
Bq         0.0696555955    -2.1499730308    -0.0743179269
Bq         0.0146232286    -1.6680081173     0.0468483254
Bq        -0.0404091383    -1.1860432037     0.1680145777
Bq        -0.0954415051    -0.7040782902     0.2891808300
Bq         0.8550941632    -5.0417625122    -0.5945485025
Bq         0.8000617963    -4.5597975986    -0.4733822502
Bq         0.7450294295    -4.0778326851    -0.3522159979
Bq         0.6899970626    -3.5958677715    -0.2310497456
Bq         0.6349646958    -3.1139028580    -0.1098834933
Bq         0.5799323289    -2.6319379444     0.0112827590
Bq         0.5248999620    -2.1499730308     0.1324490113
Bq         0.4698675952    -1.6680081173     0.2536152636
Bq         0.4148352283    -1.1860432037     0.3747815159
Bq         0.3598028614    -0.7040782902     0.4959477681
Bq         1.3103385298    -5.0417625122    -0.3877815643
Bq         1.2553061629    -4.5597975986    -0.2666153120
Bq         1.2002737960    -4.0778326851    -0.1454490597
Bq         1.1452414292    -3.5958677715    -0.0242828075
Bq         1.0902090623    -3.1139028580     0.0968834448
Bq         1.0351766955    -2.6319379444     0.2180496971
Bq         0.9801443286    -2.1499730308     0.3392159494
Bq         0.9251119617    -1.6680081173     0.4603822017
Bq         0.8700795949    -1.1860432037     0.5815484540
Bq         0.8150472280    -0.7040782902     0.7027147063
Bq         1.7655828963    -5.0417625122    -0.1810146262
Bq         1.7105505295    -4.5597975986    -0.0598483739
Bq         1.6555181626    -4.0778326851     0.0613178784
Bq         1.6004857957    -3.5958677715     0.1824841307
Bq         1.5454534289    -3.1139028580     0.3036503830
Bq         1.4904210620    -2.6319379444     0.4248166353
Bq         1.4353886952    -2.1499730308     0.5459828876
Bq         1.3803563283    -1.6680081173     0.6671491398
Bq         1.3253239614    -1.1860432037     0.7883153921
Bq         1.2702915946    -0.7040782902     0.9094816444
Bq         2.2208272629    -5.0417625122     0.0257523120
Bq         2.1657948960    -4.5597975986     0.1469185643
Bq         2.1107625292    -4.0778326851     0.2680848165
Bq         2.0557301623    -3.5958677715     0.3892510688
Bq         2.0006977955    -3.1139028580     0.5104173211
Bq         1.9456654286    -2.6319379444     0.6315835734
Bq         1.8906330617    -2.1499730308     0.7527498257
Bq         1.8356006949    -1.6680081173     0.8739160780
Bq         1.7805683280    -1.1860432037     0.9950823303
Bq         1.7255359612    -0.7040782902     1.1162485826
Bq         2.6760716295    -5.0417625122     0.2325192501
Bq         2.6210392626    -4.5597975986     0.3536855024
Bq         2.5660068957    -4.0778326851     0.4748517547
Bq         2.5109745289    -3.5958677715     0.5960180070
Bq         2.4559421620    -3.1139028580     0.7171842593
Bq         2.4009097952    -2.6319379444     0.8383505116
Bq         2.3458774283    -2.1499730308     0.9595167638
Bq         2.2908450614    -1.6680081173     1.0806830161
Bq         2.2358126946    -1.1860432037     1.2018492684
Bq         2.1807803277    -0.7040782902     1.3230155207
Bq         3.1313159960    -5.0417625122     0.4392861882
Bq         3.0762836292    -4.5597975986     0.5604524405
Bq         3.0212512623    -4.0778326851     0.6816186928
Bq         2.9662188954    -3.5958677715     0.8027849451
Bq         2.9111865286    -3.1139028580     0.9239511974
Bq         2.8561541617    -2.6319379444     1.0451174497
Bq         2.8011217949    -2.1499730308     1.1662837020
Bq         2.7460894280    -1.6680081173     1.2874499543
Bq         2.6910570611    -1.1860432037     1.4086162066
Bq         2.6360246943    -0.7040782902     1.5297824589

