%nproc=8
# rb3lyp/6-311+g** NMR

Title

0 1
C       -4.050055800     -0.577186200      0.813671200
H       -5.026380400     -1.008272700      1.002476000
C       -3.938155200      0.661780400      0.240087600
H       -4.825242400      1.233889000     -0.011129500
C       -2.676841000      1.243324600      0.005757800
C       -1.497412100      0.505152700      0.284825300
C       -1.650833200     -0.733872800      0.940402600
H       -0.771364600     -1.273096700      1.263375300
C       -2.889854800     -1.262403500      1.199430700
H       -2.968370600     -2.212456300      1.715267600
C       -2.577318500      2.596369600     -0.419293000
H       -3.487072800      3.141223900     -0.647405500
C       -1.374189500      3.214789600     -0.436403000
H       -1.299731500      4.274201900     -0.657814400
C       -0.171948800      2.499409000     -0.173458800
C       -0.204391700      1.101843700      0.019268900
C        1.051349100      3.204256000     -0.067622200
H        1.042734400      4.281949900     -0.189699700
C        2.194209100      2.548744600      0.257957700
H        3.116852700      3.091284800      0.433472700
C        2.221647300      1.133656200      0.293499000
C        1.048693100      0.394552800      0.030241200
C        3.448336300      0.461463300      0.557393900
H        4.309579400      1.060605400      0.833484600
C        3.542734600     -0.885592600      0.474946300
H        4.473146700     -1.393970400      0.703882200
C        2.449005200     -1.647444700     -0.019631900
C        1.215070400     -1.005725800     -0.301357300
C        0.253111300     -1.743444000     -1.021659100
H       -0.654135600     -1.253505100     -1.346284700
C        0.449419300     -3.062859700     -1.341377900
H       -0.308316200     -3.594430900     -1.905406000
C        1.625172600     -3.720796700     -0.955254100
H        1.767004800     -4.768740400     -1.192701900
C        2.610987200     -3.014417700     -0.318305000
H        3.552561200     -3.490281300     -0.064636700
Bq         1.0232596833     1.8137437167     0.0599809667
Bq        -1.6129062924    -0.6341018169     0.8074307588
Bq        -1.6093456227    -0.1347057400     0.7831227350
Bq        -1.6057849530     0.3646903368     0.7588147112
Bq        -1.6022242833     0.8640864137     0.7345066873
Bq        -1.5986636136     1.3634824906     0.7101986635
Bq        -1.5951029439     1.8628785675     0.6858906397
Bq        -1.5915422742     2.3622746444     0.6615826158
Bq        -1.5879816045     2.8616707213     0.6372745920
Bq        -1.5844209348     3.3610667981     0.6129665682
Bq        -1.5808602651     3.8604628750     0.5886585443
Bq        -1.1181856731    -0.6341018169     0.8798980534
Bq        -1.1146250034    -0.1347057400     0.8555900296
Bq        -1.1110643337     0.3646903368     0.8312820057
Bq        -1.1075036640     0.8640864137     0.8069739819
Bq        -1.1039429942     1.3634824906     0.7826659581
Bq        -1.1003823245     1.8628785675     0.7583579342
Bq        -1.0968216548     2.3622746444     0.7340499104
Bq        -1.0932609851     2.8616707213     0.7097418866
Bq        -1.0897003154     3.3610667981     0.6854338627
Bq        -1.0861396457     3.8604628750     0.6611258389
Bq        -0.6234650537    -0.6341018169     0.9523653480
Bq        -0.6199043840    -0.1347057400     0.9280573241
Bq        -0.6163437143     0.3646903368     0.9037493003
Bq        -0.6127830446     0.8640864137     0.8794412765
Bq        -0.6092223749     1.3634824906     0.8551332526
Bq        -0.6056617052     1.8628785675     0.8308252288
Bq        -0.6021010355     2.3622746444     0.8065172050
Bq        -0.5985403658     2.8616707213     0.7822091811
Bq        -0.5949796961     3.3610667981     0.7579011573
Bq        -0.5914190263     3.8604628750     0.7335931335
Bq        -0.1287444344    -0.6341018169     1.0248326425
Bq        -0.1251837647    -0.1347057400     1.0005246187
Bq        -0.1216230950     0.3646903368     0.9762165949
Bq        -0.1180624252     0.8640864137     0.9519085710
Bq        -0.1145017555     1.3634824906     0.9276005472
Bq        -0.1109410858     1.8628785675     0.9032925234
Bq        -0.1073804161     2.3622746444     0.8789844995
Bq        -0.1038197464     2.8616707213     0.8546764757
Bq        -0.1002590767     3.3610667981     0.8303684519
Bq        -0.0966984070     3.8604628750     0.8060604280
Bq         0.3659761850    -0.6341018169     1.0972999371
Bq         0.3695368547    -0.1347057400     1.0729919133
Bq         0.3730975244     0.3646903368     1.0486838894
Bq         0.3766581941     0.8640864137     1.0243758656
Bq         0.3802188638     1.3634824906     1.0000678418
Bq         0.3837795335     1.8628785675     0.9757598179
Bq         0.3873402032     2.3622746444     0.9514517941
Bq         0.3909008729     2.8616707213     0.9271437703
Bq         0.3944615427     3.3610667981     0.9028357464
Bq         0.3980222124     3.8604628750     0.8785277226
Bq         0.8606968043    -0.6341018169     1.1697672317
Bq         0.8642574741    -0.1347057400     1.1454592078
Bq         0.8678181438     0.3646903368     1.1211511840
Bq         0.8713788135     0.8640864137     1.0968431602
Bq         0.8749394832     1.3634824906     1.0725351363
Bq         0.8785001529     1.8628785675     1.0482271125
Bq         0.8820608226     2.3622746444     1.0239190887
Bq         0.8856214923     2.8616707213     0.9996110648
Bq         0.8891821620     3.3610667981     0.9753030410
Bq         0.8927428317     3.8604628750     0.9509950172
Bq         1.3554174237    -0.6341018169     1.2422345262
Bq         1.3589780934    -0.1347057400     1.2179265024
Bq         1.3625387631     0.3646903368     1.1936184786
Bq         1.3660994328     0.8640864137     1.1693104547
Bq         1.3696601025     1.3634824906     1.1450024309
Bq         1.3732207722     1.8628785675     1.1206944071
Bq         1.3767814420     2.3622746444     1.0963863833
Bq         1.3803421117     2.8616707213     1.0720783594
Bq         1.3839027814     3.3610667981     1.0477703356
Bq         1.3874634511     3.8604628750     1.0234623118
Bq         1.8501380431    -0.6341018169     1.3147018208
Bq         1.8536987128    -0.1347057400     1.2903937970
Bq         1.8572593825     0.3646903368     1.2660857731
Bq         1.8608200522     0.8640864137     1.2417777493
Bq         1.8643807219     1.3634824906     1.2174697255
Bq         1.8679413916     1.8628785675     1.1931617017
Bq         1.8715020613     2.3622746444     1.1688536778
Bq         1.8750627310     2.8616707213     1.1445456540
Bq         1.8786234007     3.3610667981     1.1202376302
Bq         1.8821840704     3.8604628750     1.0959296063
Bq         2.3448586624    -0.6341018169     1.3871691154
Bq         2.3484193321    -0.1347057400     1.3628610916
Bq         2.3519800018     0.3646903368     1.3385530677
Bq         2.3555406715     0.8640864137     1.3142450439
Bq         2.3591013413     1.3634824906     1.2899370201
Bq         2.3626620110     1.8628785675     1.2656289962
Bq         2.3662226807     2.3622746444     1.2413209724
Bq         2.3697833504     2.8616707213     1.2170129486
Bq         2.3733440201     3.3610667981     1.1927049247
Bq         2.3769046898     3.8604628750     1.1683969009
Bq         2.8395792818    -0.6341018169     1.4596364100
Bq         2.8431399515    -0.1347057400     1.4353283861
Bq         2.8467006212     0.3646903368     1.4110203623
Bq         2.8502612909     0.8640864137     1.3867123385
Bq         2.8538219606     1.3634824906     1.3624043146
Bq         2.8573826303     1.8628785675     1.3380962908
Bq         2.8609433000     2.3622746444     1.3137882670
Bq         2.8645039697     2.8616707213     1.2894802431
Bq         2.8680646394     3.3610667981     1.2651722193
Bq         2.8716253092     3.8604628750     1.2408641955

