%nproc=8
%mem=1000MB
# rb3lyp/6-311+g** NMR geom=connectivity

Title

0 1
C    -4.0500558   -0.5771862    0.8136712
H    -5.0263804   -1.0082727    1.0024760
C    -3.9381552    0.6617804    0.2400876
H    -4.8252424    1.2338890   -0.0111295
C    -2.6768410    1.2433246    0.0057578
C    -1.4974121    0.5051527    0.2848253
C    -1.6508332   -0.7338728    0.9404026
H    -0.7713646   -1.2730967    1.2633753
C    -2.8898548   -1.2624035    1.1994307
H    -2.9683706   -2.2124563    1.7152676
C    -2.5773185    2.5963696   -0.4192930
H    -3.4870728    3.1412239   -0.6474055
C    -1.3741895    3.2147896   -0.4364030
H    -1.2997315    4.2742019   -0.6578144
C    -0.1719488    2.4994090   -0.1734588
C    -0.2043917    1.1018437    0.0192689
C     1.0513491    3.2042560   -0.0676222
H     1.0427344    4.2819499   -0.1896997
C     2.1942091    2.5487446    0.2579577
H     3.1168527    3.0912848    0.4334727
C     2.2216473    1.1336562    0.2934990
C     1.0486931    0.3945528    0.0302412
C     3.4483363    0.4614633    0.5573939
H     4.3095794    1.0606054    0.8334846
C     3.5427346   -0.8855926    0.4749463
H     4.4731467   -1.3939704    0.7038822
C     2.4490052   -1.6474447   -0.0196319
C     1.2150704   -1.0057258   -0.3013573
C     0.2531113   -1.7434440   -1.0216591
H    -0.6541356   -1.2535051   -1.3462847
C     0.4494193   -3.0628597   -1.3413779
H    -0.3083162   -3.5944309   -1.9054060
C     1.6251726   -3.7207967   -0.9552541
H     1.7670048   -4.7687404   -1.1927019
C     2.6109872   -3.0144177   -0.3183050
H     3.5525612   -3.4902813   -0.0646367
Bq        -4.9820220850     2.0812920311     0.1091710627
Bq        -4.9822051483     2.2148261408     0.1557393785
Bq        -4.9814971571     2.1278607068    -0.0243620152
Bq        -4.9825591439     2.2583088578     0.2457900754
Bq        -4.9811431616     2.0843779898    -0.1144127121
Bq        -4.9829131394     2.3017915748     0.3358407723
Bq        -4.9807891660     2.0408952728    -0.2044634090
Bq        -4.9832671350     2.3452742918     0.4258914692
Bq        -4.9804351704     1.9974125558    -0.2945141059
Bq        -4.9836211306     2.3887570088     0.5159421660
Bq        -4.9800811748     1.9539298388    -0.3845648028
Bq        -4.9818511527     2.1713434238     0.0656886816
Bq        -4.9820342160     2.3048775334     0.1122569975
Bq        -4.9813262249     2.2179120994    -0.0678443963
Bq        -4.9823882116     2.3483602505     0.2023076944
Bq        -4.9809722293     2.1744293824    -0.1578950932
Bq        -4.9827422072     2.3918429675     0.2923583913
Bq        -4.9806182337     2.1309466654    -0.2479457900
Bq        -4.9830962027     2.4353256845     0.3824090881
Bq        -4.9802642381     2.0874639484    -0.3379964869
Bq        -4.9834501983     2.4788084015     0.4724597850
Bq        -4.9799102426     2.0439812314    -0.4280471838
Bq        -4.9816802204     2.2613948164     0.0222063006
Bq        -4.9818632837     2.3949289261     0.0687746165
Bq        -4.9811552926     2.3079634921    -0.1113267773
Bq        -4.9822172793     2.4384116431     0.1588253133
Bq        -4.9808012970     2.2644807751    -0.2013774742
Bq        -4.9825712749     2.4818943601     0.2488760102
Bq        -4.9804473014     2.2209980581    -0.2914281711
Bq        -4.9829252705     2.5253770771     0.3389267071
Bq        -4.9800933059     2.1775153411    -0.3814788680
Bq        -4.9832792660     2.5688597941     0.4289774040
Bq        -4.9797393103     2.1340326241    -0.4715295648
Bq        -4.9815092882     2.3514462091    -0.0212760804
Bq        -4.9816923515     2.4849803188     0.0252922354
Bq        -4.9809843603     2.3980148848    -0.1548091583
Bq        -4.9820463470     2.5284630358     0.1153429323
Bq        -4.9806303647     2.3545321678    -0.2448598552
Bq        -4.9824003426     2.5719457528     0.2053936292
Bq        -4.9802763692     2.3110494508    -0.3349105521
Bq        -4.9827543382     2.6154284698     0.2954443261
Bq        -4.9799223736     2.2675667338    -0.4249612490
Bq        -4.9831083338     2.6589111868     0.3854950230
Bq        -4.9795683780     2.2240840168    -0.5150119459
Bq        -4.9813383559     2.4414976018    -0.0647584615
Bq        -4.8902397379    -2.0175893147     2.1998043910
Bq        -4.8895317467    -2.1045547487     2.0197029972
Bq        -4.8905937334    -1.9741065977     2.2898550879
Bq        -4.8891777511    -2.1480374658     1.9296523003
Bq        -4.8909477290    -1.9306238807     2.3799057848
Bq        -4.8888237556    -2.1915201828     1.8396016035
Bq        -4.8913017246    -1.8871411637     2.4699564816
Bq        -4.8884697600    -2.2350028998     1.7495509066
Bq        -4.8916557202    -1.8436584467     2.5600071785
Bq        -4.8881157644    -2.2784856168     1.6595002097
Bq        -4.8898857423    -2.0610720317     2.1097536941
Bq        -4.8900688056    -1.9275379221     2.1563220100
Bq        -4.8893608144    -2.0145033561     1.9762206162
Bq        -4.8904228012    -1.8840552051     2.2463727068
Bq        -4.8890068189    -2.0579860731     1.8861699193
Bq        -4.8907767967    -1.8405724881     2.3364234037
Bq        -4.8886528233    -2.1014687901     1.7961192224
Bq        -4.8911307923    -1.7970897711     2.4264741006
Bq        -4.8882988277    -2.1449515071     1.7060685255
Bq        -4.8914847879    -1.7536070540     2.5165247975
Bq        -4.8879448321    -2.1884342241     1.6160178287
Bq        -4.8897148100    -1.9710206391     2.0662713131
Bq        -4.8898978733    -1.8374865294     2.1128396289
Bq        -4.8891898822    -1.9244519634     1.9327382352
Bq        -4.8902518689    -1.7940038124     2.2028903258
Bq        -4.8888358866    -1.9679346804     1.8426875383
Bq        -4.8906058645    -1.7505210954     2.2929410227
Bq        -4.8884818910    -2.0114173974     1.7526368414
Bq        -4.8909598600    -1.7070383784     2.3829917196
Bq        -4.8881278954    -2.0549001144     1.6625861445
Bq        -4.8913138556    -1.6635556614     2.4730424165
Bq        -4.8877738999    -2.0983828314     1.5725354476
Bq        -4.8895438777    -1.8809692464     2.0227889320
Bq        -4.8897269410    -1.7474351367     2.0693572479
Bq        -4.8890189499    -1.8344005707     1.8892558541
Bq        -4.8900809366    -1.7039524197     2.1594079448
Bq        -4.8886649543    -1.8778832877     1.7992051572
Bq        -4.8904349322    -1.6604697027     2.2494586417
Bq        -4.8883109587    -1.9213660047     1.7091544604
Bq        -4.8907889278    -1.6169869857     2.3395093385
Bq        -4.8879569632    -1.9648487217     1.6191037635
Bq        -4.8911429233    -1.5735042687     2.4295600354
Bq        -4.8876029676    -2.0083314388     1.5290530666
Bq        -4.8893729455    -1.7909178537     1.9793065510
Bq        -4.8895560088    -1.6573837441     2.0258748669
Bq        -4.8888480176    -1.7443491781     1.8457734731
Bq        -4.8899100043    -1.6139010270     2.1159255637
Bq        -4.8884940220    -1.7878318951     1.7557227762
Bq        -4.8902639999    -1.5704183100     2.2059762606
Bq        -4.8881400265    -1.8313146121     1.6656720793
Bq        -4.8906179955    -1.5269355930     2.2960269575
Bq        -4.8877860309    -1.8747973291     1.5756213824
Bq        -4.8909719911    -1.4834528760     2.3860776544
Bq        -4.8874320353    -1.9182800461     1.4855706856
Bq        -4.8892020132    -1.7008664611     1.9358241700
Bq        -4.8893850765    -1.5673323514     1.9823924858
Bq        -4.8886770853    -1.6542977854     1.8022910921
Bq        -4.8897390721    -1.5238496344     2.0724431827
Bq        -4.8883230898    -1.6977805024     1.7122403952
Bq        -4.8900930676    -1.4803669174     2.1624938796
Bq        -4.8879690942    -1.7412632194     1.6221896983
Bq        -4.8904470632    -1.4368842004     2.2525445765
Bq        -4.8876150986    -1.7847459364     1.5321390014
Bq        -4.8908010588    -1.3934014834     2.3425952734
Bq        -4.8872611030    -1.8282286534     1.4420883045
Bq        -4.8890310809    -1.6108150684     1.8923417889
Bq        -4.8892141442    -1.4772809587     1.9389101048
Bq        -4.8885061531    -1.5642463927     1.7588087110
Bq        -4.8895681398    -1.4337982417     2.0289608017
Bq        -4.8881521575    -1.6077291097     1.6687580141
Bq        -4.8899221354    -1.3903155247     2.1190114986
Bq        -4.8877981619    -1.6512118267     1.5787073173
Bq        -4.8902761309    -1.3468328077     2.2090621954
Bq        -4.8874441663    -1.6946945437     1.4886566204
Bq        -4.8906301265    -1.3033500907     2.2991128923
Bq        -4.8870901708    -1.7381772607     1.3986059235
Bq        -4.8888601486    -1.5207636757     1.8488594079
Bq        -4.8890432119    -1.3872295660     1.8954277238
Bq        -4.8883352208    -1.4741950001     1.7153263300
Bq        -4.8893972075    -1.3437468490     1.9854784206
Bq        -4.8879812252    -1.5176777171     1.6252756331
Bq        -4.8897512031    -1.3002641320     2.0755291175
Bq        -4.8876272296    -1.5611604341     1.5352249362
Bq        -4.8901051987    -1.2567814150     2.1655798144
Bq        -4.8872732341    -1.6046431511     1.4451742393
Bq        -4.8904591942    -1.2132986980     2.2556305113
Bq        -4.8869192385    -1.6481258681     1.3551235425
Bq        -4.8886892164    -1.4307122830     1.8053770269
Bq        -4.8888722797    -1.2971781734     1.8519453427
Bq        -4.8881642885    -1.3841436074     1.6718439490
Bq        -4.8892262752    -1.2536954564     1.9419960396
Bq        -4.8878102929    -1.4276263244     1.5817932521
Bq        -4.8895802708    -1.2102127394     2.0320467365
Bq        -4.8874562974    -1.4711090414     1.4917425552
Bq        -4.8899342664    -1.1667300224     2.1220974334
Bq        -4.8871023018    -1.5145917584     1.4016918583
Bq        -4.8902882620    -1.1232473054     2.2121481303
Bq        -4.8867483062    -1.5580744754     1.3116411614
Bq        -4.8885182841    -1.3406608904     1.7618946458
Bq        -4.8887013474    -1.2071267807     1.8084629617
Bq        -4.8879933562    -1.2940922147     1.6283615679
Bq        -4.8890553430    -1.1636440637     1.8985136586
Bq        -4.8876393607    -1.3375749317     1.5383108710
Bq        -4.8894093385    -1.1201613467     1.9885643555
Bq        -4.8872853651    -1.3810576487     1.4482601742
Bq        -4.8897633341    -1.0766786297     2.0786150523
Bq        -4.8869313695    -1.4245403657     1.3582094773
Bq        -4.8901173297    -1.0331959127     2.1686657492
Bq        -4.8865773739    -1.4680230827     1.2681587804
Bq        -4.8883473518    -1.2506094977     1.7184122648
Bq        -4.8885304151    -1.1170753880     1.7649805807
Bq        -4.8878224240    -1.2040408220     1.5848791869
Bq        -4.8888844107    -1.0735926710     1.8550312775
Bq        -4.8874684284    -1.2475235390     1.4948284900
Bq        -4.8892384063    -1.0301099540     1.9450819744
Bq        -4.8871144328    -1.2910062560     1.4047777931
Bq        -4.8895924018    -0.9866272370     2.0351326713
Bq        -4.8867604372    -1.3344889731     1.3147270962
Bq        -4.8899463974    -0.9431445200     2.1251833682
Bq        -4.8864064417    -1.3779716901     1.2246763994
Bq        -4.8881764195    -1.1605581050     1.6749298838
Bq        -4.8883594828    -1.0270239954     1.7214981996
Bq        -4.8876514917    -1.1139894294     1.5413968059
Bq        -4.8887134784    -0.9835412784     1.8115488965
Bq        -4.8872974961    -1.1574721464     1.4513461090
Bq        -4.8890674740    -0.9400585614     1.9015995934
Bq        -4.8869435005    -1.2009548634     1.3612954121
Bq        -4.8894214696    -0.8965758443     1.9916502903
Bq        -4.8865895050    -1.2444375804     1.2712447152
Bq        -4.8897754651    -0.8530931273     2.0817009872
Bq        -4.8862355094    -1.2879202974     1.1811940183
Bq        -4.8880054873    -1.0705067124     1.6314475027
Bq        -4.8881885506    -0.9369726027     1.6780158186
Bq        -4.8874805594    -1.0239380367     1.4979144248
Bq        -4.8885425461    -0.8934898857     1.7680665155
Bq        -4.8871265638    -1.0674207537     1.4078637280
Bq        -4.8888965417    -0.8500071687     1.8581172124
Bq        -4.8867725683    -1.1109034707     1.3178130311
Bq        -4.8892505373    -0.8065244517     1.9481679092
Bq        -4.8864185727    -1.1543861877     1.2277623342
Bq        -4.8896045329    -0.7630417347     2.0382186061
Bq        -4.8860645771    -1.1978689047     1.1377116373
Bq        -4.8878345550    -0.9804553197     1.5879651217
Bq        -4.8880176183    -0.8469212100     1.6345334376
Bq        -4.8873096271    -0.9338866440     1.4544320438
Bq        -4.8883716139    -0.8034384930     1.7245841344
Bq        -4.8869556316    -0.9773693610     1.3643813469
Bq        -4.8887256094    -0.7599557760     1.8146348313
Bq        -4.8866016360    -1.0208520780     1.2743306500
Bq        -4.8890796050    -0.7164730590     1.9046855282
Bq        -4.8862476404    -1.0643347950     1.1842799532
Bq        -4.8894336006    -0.6729903420     1.9947362251
Bq        -4.8858936448    -1.1078175120     1.0942292563
Bq        -4.8876636227    -0.8904039270     1.5444827407
Bq        -4.8878466860    -0.7568698173     1.5910510565

1
2
3
4
5
6
7
8
9
10
11
12
13
14
15
16
17
18
19
20
21
22
23
24
25
26
27
28
29
30
31
32
33
34
35
36
37
38
39
40
41
42
43
44
45
46
47
48
49
50
51
52
53
54
55
56
57
58
59
60
61
62
63
64
65
66
67
68
69
70
71
72
73
74
75
76
77
78
79
80
81
82
83
84
85
86
87
88
89
90
91
92
93
94
95
96
97
98
99
100
101
102
103
104
105
106
107
108
109
110
111
112
113
114
115
116
117
118
119
120
121
122
123
124
125
126
127
128
129
130
131
132
133
134
135
136
137
138
139
140
141
142
143
144
145
146
147
148
149
150
151
152
153
154
155
156
157
158
159
160
161
162
163
164
165
166
167
168
169
170
171
172
173
174
175
176
177
178
179
180
181
182
183
184
185
186
187
188
189
190
191
192
193
194
195
196
197
198
199
200
201
202
203
204
205
206
207
208
209
210
211
212
213
214
215
216
217
218
219
220
221
222
223
224
225
226
227
228
229
230
231
232
233
234
235
236

