%nproc=8
%mem=1000MB
# rb3lyp/6-311+g** NMR geom=connectivity

Title

0 1
C    -4.0500558   -0.5771862    0.8136712
H    -5.0263804   -1.0082727    1.0024760
C    -3.9381552    0.6617804    0.2400876
H    -4.8252424    1.2338890   -0.0111295
C    -2.6768410    1.2433246    0.0057578
C    -1.4974121    0.5051527    0.2848253
C    -1.6508332   -0.7338728    0.9404026
H    -0.7713646   -1.2730967    1.2633753
C    -2.8898548   -1.2624035    1.1994307
H    -2.9683706   -2.2124563    1.7152676
C    -2.5773185    2.5963696   -0.4192930
H    -3.4870728    3.1412239   -0.6474055
C    -1.3741895    3.2147896   -0.4364030
H    -1.2997315    4.2742019   -0.6578144
C    -0.1719488    2.4994090   -0.1734588
C    -0.2043917    1.1018437    0.0192689
C     1.0513491    3.2042560   -0.0676222
H     1.0427344    4.2819499   -0.1896997
C     2.1942091    2.5487446    0.2579577
H     3.1168527    3.0912848    0.4334727
C     2.2216473    1.1336562    0.2934990
C     1.0486931    0.3945528    0.0302412
C     3.4483363    0.4614633    0.5573939
H     4.3095794    1.0606054    0.8334846
C     3.5427346   -0.8855926    0.4749463
H     4.4731467   -1.3939704    0.7038822
C     2.4490052   -1.6474447   -0.0196319
C     1.2150704   -1.0057258   -0.3013573
C     0.2531113   -1.7434440   -1.0216591
H    -0.6541356   -1.2535051   -1.3462847
C     0.4494193   -3.0628597   -1.3413779
H    -0.3083162   -3.5944309   -1.9054060
C     1.6251726   -3.7207967   -0.9552541
H     1.7670048   -4.7687404   -1.1927019
C     2.6109872   -3.0144177   -0.3183050
H     3.5525612   -3.4902813   -0.0646367
Bq        -0.7495248932    -0.1019403186     0.7135806693
Bq        -0.7687347998     0.0208062683     1.1978990097
Bq        -0.7456829119    -0.1264896360     0.6167170012
Bq        -0.7725767812     0.0453555857     1.2947626778
Bq        -0.7418409305    -0.1510389533     0.5198533331
Bq        -0.7764187625     0.0699049030     1.3916263459
Bq        -0.7379989492    -0.1755882707     0.4229896650
Bq        -0.7572088559    -0.0528416838     0.9073080055
Bq        -0.7600778830     0.0686474655     0.9796416441
Bq        -0.7523939203     0.0195488307     0.7859143080
Bq        -0.7639198643     0.0931967828     1.0765053122
Bq        -0.7485519390    -0.0050004867     0.6890506399
Bq        -0.7677618456     0.1177461002     1.1733689803
Bq        -0.7447099576    -0.0295498040     0.5921869718
Bq        -0.7716038270     0.1422954176     1.2702326484
Bq        -0.7408679763    -0.0540991214     0.4953233037
Bq        -0.7754458083     0.1668447350     1.3670963165
Bq        -0.7370259950    -0.0786484388     0.3984596356
Bq        -0.7562359016     0.0440981481     0.8827779760
Bq        -0.7591049287     0.1655872974     0.9551116147
Bq        -0.7514209661     0.1164886627     0.7613842785
Bq        -0.7629469101     0.1901366148     1.0519752828
Bq        -0.7475789848     0.0919393453     0.6645206104
Bq        -0.7667888914     0.2146859322     1.1488389509
Bq        -0.7437370034     0.0673900279     0.5676569423
Bq        -0.7706308727     0.2392352495     1.2457026190
Bq        -0.7398950221     0.0428407105     0.4707932743
Bq        -0.7744728541     0.2637845669     1.3425662871
Bq        -0.7360530408     0.0182913932     0.3739296062
Bq        -0.7552629474     0.1410379800     0.8582479466
Bq        -0.7581319745     0.2625271294     0.9305815853
Bq        -0.7504480119     0.2134284946     0.7368542491
Bq        -0.7619739558     0.2870764467     1.0274452534
Bq        -0.7466060305     0.1888791772     0.6399905810
Bq        -0.7658159372     0.3116257641     1.1243089215
Bq        -0.7427640492     0.1643298598     0.5431269129
Bq        -0.7696579185     0.3361750815     1.2211725895
Bq        -0.7389220679     0.1397805425     0.4462632448
Bq        -0.7734998998     0.3607243989     1.3180362576
Bq        -0.7350800865     0.1152312251     0.3493995767
Bq        -0.7542899932     0.2379778120     0.8337179172
Bq        -0.7571590203     0.3594669613     0.9060515558
Bq        -0.7494750576     0.3103683265     0.7123242197
Bq        -0.7610010016     0.3840162787     1.0029152239
Bq        -0.7456330763     0.2858190092     0.6154605516
Bq        -0.7648429830     0.4085655960     1.0997788920
Bq        -0.7417910950     0.2612696918     0.5185968835
Bq        -0.7686849643     0.4331149134     1.1966425601
Bq        -0.7379491136     0.2367203744     0.4217332154
Bq        -0.7725269456     0.4576642308     1.2935062282
Bq        -0.7341071323     0.2121710570     0.3248695473
Bq        -0.7533170390     0.3349176439     0.8091878878
Bq        -0.7561860661     0.4564067932     0.8815215264
Bq        -0.7485021034     0.4073081585     0.6877941902
Bq        -0.7600280474     0.4809561106     0.9783851945
Bq        -0.7446601221     0.3827588411     0.5909305222
Bq        -0.7638700287     0.5055054280     1.0752488626
Bq        -0.7408181408     0.3582095237     0.4940668541
Bq        -0.7677120101     0.5300547454     1.1721125307
Bq        -0.7369761594     0.3336602064     0.3972031860
Bq        -0.7715539914     0.5546040627     1.2689761988
Bq        -0.7331341781     0.3091108890     0.3003395179
Bq        -0.7523440847     0.4318574759     0.7846578583
Bq        -0.7552131118     0.5533466252     0.8569914970
Bq        -0.7475291492     0.5042479904     0.6632641608
Bq        -0.7590550932     0.5778959425     0.9538551651
Bq        -0.7436871679     0.4796986730     0.5664004927
Bq        -0.7628970745     0.6024452599     1.0507188332
Bq        -0.7398451865     0.4551493557     0.4695368246
Bq        -0.7667390558     0.6269945773     1.1475825013
Bq        -0.7360032052     0.4306000383     0.3726731565
Bq        -0.7705810372     0.6515438947     1.2444461694
Bq        -0.7321612239     0.4060507209     0.2758094885
Bq        -0.7513711305     0.5287973078     0.7601278289
Bq        -0.7542401576     0.6502864571     0.8324614676
Bq        -0.7465561950     0.6011878224     0.6387341314
Bq        -0.7580821389     0.6748357745     0.9293251357
Bq        -0.7427142136     0.5766385050     0.5418704633
Bq        -0.7619241203     0.6993850919     1.0261888037
Bq        -0.7388722323     0.5520891876     0.4450067952
Bq        -0.7657661016     0.7239344092     1.1230524718
Bq        -0.7350302510     0.5275398702     0.3481431271
Bq        -0.7696080829     0.7484837266     1.2199161399
Bq        -0.7311882696     0.5029905529     0.2512794590
Bq        -0.7503981763     0.6257371397     0.7355977995
Bq        -0.7532672034     0.7472262890     0.8079314381
Bq        -0.7455832407     0.6981276543     0.6142041020
Bq        -0.7571091847     0.7717756064     0.9047951062
Bq        -0.7417412594     0.6735783369     0.5173404339
Bq        -0.7609511661     0.7963249238     1.0016587743
Bq        -0.7378992781     0.6490290195     0.4204767658
Bq        -0.7647931474     0.8208742412     1.0985224424
Bq        -0.7340572967     0.6244797022     0.3236130977
Bq        -0.7686351287     0.8454235585     1.1953861105
Bq        -0.7302153154     0.5999303848     0.2267494296
Bq        -0.7494252221     0.7226769717     0.7110677701
Bq        -0.7522942492     0.8441661210     0.7834014087
Bq        -0.7446102865     0.7950674862     0.5896740725
Bq        -0.7561362305     0.8687154384     0.8802650768
Bq        -0.7407683052     0.7705181689     0.4928104044
Bq        -0.7599782118     0.8932647557     0.9771287449
Bq        -0.7369263239     0.7459688515     0.3959467364
Bq        -0.7638201932     0.9178140731     1.0739924130
Bq        -0.7330843425     0.7214195341     0.2990830683
Bq        -0.7676621745     0.9423633905     1.1708560811
Bq        -0.7292423612     0.6968702167     0.2022194002
Bq        -0.7484522678     0.8196168036     0.6865377406
Bq        -0.7513212949     0.9411059529     0.7588713793
Bq        -0.7436373323     0.8920073182     0.5651440431
Bq        -0.7551632763     0.9656552703     0.8557350474
Bq        -0.7397953510     0.8674580008     0.4682803750
Bq        -0.7590052576     0.9902045877     0.9525987155
Bq        -0.7359533696     0.8429086834     0.3714167069
Bq        -0.7628472389     1.0147539051     1.0494623836
Bq        -0.7321113883     0.8183593660     0.2745530388
Bq        -0.7666892203     1.0393032224     1.1463260516
Bq        -0.7282694070     0.7938100487     0.1776893707
Bq        -0.7474793136     0.9165566355     0.6620077112
Bq        -0.7503483407     1.0380457849     0.7343413499
Bq        -0.7426643781     0.9889471501     0.5406140137
Bq        -0.7541903221     1.0625951022     0.8312050179
Bq        -0.7388223967     0.9643978327     0.4437503456
Bq        -0.7580323034     1.0871444196     0.9280686860
Bq        -0.7349804154     0.9398485154     0.3468866775
Bq        -0.7618742847     1.1116937370     1.0249323541
Bq        -0.7311384341     0.9152991980     0.2500230094
Bq        -0.7657162660     1.1362430544     1.1217960222
Bq        -0.7272964527     0.8907498806     0.1531593413
Bq        -0.7465063594     1.0134964675     0.6374776818
Bq        -0.7493753865     1.1349856168     0.7098113204
Bq        -0.7416914238     1.0858869821     0.5160839843
Bq        -0.7532173678     1.1595349342     0.8066749885
Bq        -0.7378494425     1.0613376647     0.4192203162
Bq        -0.7570593492     1.1840842516     0.9035386566
Bq        -0.7340074612     1.0367883473     0.3223566481
Bq        -0.7609013305     1.2086335689     1.0004023247
Bq        -0.7301654799     1.0122390299     0.2254929800
Bq        -0.7647433118     1.2331828863     1.0972659928
Bq        -0.7263234985     0.9876897125     0.1286293119
Bq        -0.7455334052     1.1104362994     0.6129476523
Bq        -0.7484024323     1.2319254487     0.6852812910
Bq        -0.7407184696     1.1828268140     0.4915539548
Bq        -0.7522444136     1.2564747661     0.7821449591
Bq        -0.7368764883     1.1582774966     0.3946902867
Bq        -0.7560863949     1.2810240835     0.8790086272
Bq        -0.7330345070     1.1337281792     0.2978266186
Bq        -0.7599283763     1.3055734009     0.9758722953
Bq        -0.7291925256     1.1091788619     0.2009629506
Bq        -0.7637703576     1.3301227182     1.0727359634
Bq        -0.7253505443     1.0846295445     0.1040992825
Bq        -0.7445604509     1.2073761314     0.5884176229
Bq        -0.7474294780     1.3288652807     0.6607512616
Bq        -0.7397455154     1.2797666459     0.4670239254
Bq        -0.7512714594     1.3534145981     0.7576149297
Bq        -0.7359035341     1.2552173286     0.3701602573
Bq        -0.7551134407     1.3779639154     0.8544785978
Bq        -0.7320615527     1.2306680112     0.2732965892
Bq        -0.7589554220     1.4025132328     0.9513422658
Bq        -0.7282195714     1.2061186938     0.1764329211
Bq        -0.7627974034     1.4270625502     1.0482059339
Bq        -0.7243775901     1.1815693764     0.0795692530
Bq        -0.7435874967     1.3043159633     0.5638875935
Bq        -0.7464565238     1.4258051126     0.6362212322
Bq        -0.7387725612     1.3767064779     0.4424938960
Bq        -0.7502985052     1.4503544300     0.7330849002
Bq        -0.7349305798     1.3521571605     0.3456302279
Bq        -0.7541404865     1.4749037474     0.8299485683
Bq        -0.7310885985     1.3276078431     0.2487665598
Bq        -0.7579824678     1.4994530647     0.9268122364
Bq        -0.7272466172     1.3030585257     0.1519028917
Bq        -0.7618244491     1.5240023821     1.0236759045
Bq        -0.7234046358     1.2785092084     0.0550392236
Bq        -0.7426145425     1.4012557952     0.5393575641
Bq        -0.7454835696     1.5227449446     0.6116912027
Bq        -0.7377996069     1.4736463098     0.4179638665
Bq        -0.7493255509     1.5472942619     0.7085548708
Bq        -0.7339576256     1.4490969924     0.3211001985
Bq        -0.7531675323     1.5718435793     0.8054185389
Bq        -0.7301156443     1.4245476751     0.2242365304
Bq        -0.7570095136     1.5963928967     0.9022822070
Bq        -0.7262736630     1.3999983577     0.1273728623
Bq        -0.7608514949     1.6209422141     0.9991458751
Bq        -0.7224316816     1.3754490403     0.0305091942
Bq        -0.7416415883     1.4981956272     0.5148275346
Bq        -0.7445106154     1.6196847765     0.5871611733
Bq        -0.7368266527     1.5705861417     0.3934338371
Bq        -0.7483525967     1.6442340939     0.6840248414
Bq        -0.7329846714     1.5460368244     0.2965701690
Bq        -0.7521945780     1.6687834113     0.7808885095
Bq        -0.7291426901     1.5214875070     0.1997065009
Bq        -0.7560365594     1.6933327286     0.8777521776
Bq        -0.7253007087     1.4969381896     0.1028428328
Bq        -0.7598785407     1.7178820460     0.9746158457
Bq        -0.7214587274     1.4723888722     0.0059791648
Bq        -0.7406686340     1.5951354591     0.4902975052
Bq        -0.7435376612     1.7166246084     0.5626311439
Bq        -0.7358536985     1.6675259737     0.3689038077
Bq        -0.7473796425     1.7411739258     0.6594948120
Bq        -0.7320117172     1.6429766563     0.2720401396
Bq        -0.7512216238     1.7657232432     0.7563584800

1
2
3
4
5
6
7
8
9
10
11
12
13
14
15
16
17
18
19
20
21
22
23
24
25
26
27
28
29
30
31
32
33
34
35
36
37
38
39
40
41
42
43
44
45
46
47
48
49
50
51
52
53
54
55
56
57
58
59
60
61
62
63
64
65
66
67
68
69
70
71
72
73
74
75
76
77
78
79
80
81
82
83
84
85
86
87
88
89
90
91
92
93
94
95
96
97
98
99
100
101
102
103
104
105
106
107
108
109
110
111
112
113
114
115
116
117
118
119
120
121
122
123
124
125
126
127
128
129
130
131
132
133
134
135
136
137
138
139
140
141
142
143
144
145
146
147
148
149
150
151
152
153
154
155
156
157
158
159
160
161
162
163
164
165
166
167
168
169
170
171
172
173
174
175
176
177
178
179
180
181
182
183
184
185
186
187
188
189
190
191
192
193
194
195
196
197
198
199
200
201
202
203
204
205
206
207
208
209
210
211
212
213
214
215
216
217
218
219
220
221
222
223
224
225
226
227
228
229
230
231
232
233
234
235
236

