%nproc=8
%mem=1000MB
# rb3lyp/6-311+g** NMR geom=connectivity

Title

0 1
C    -4.0500558   -0.5771862    0.8136712
H    -5.0263804   -1.0082727    1.0024760
C    -3.9381552    0.6617804    0.2400876
H    -4.8252424    1.2338890   -0.0111295
C    -2.6768410    1.2433246    0.0057578
C    -1.4974121    0.5051527    0.2848253
C    -1.6508332   -0.7338728    0.9404026
H    -0.7713646   -1.2730967    1.2633753
C    -2.8898548   -1.2624035    1.1994307
H    -2.9683706   -2.2124563    1.7152676
C    -2.5773185    2.5963696   -0.4192930
H    -3.4870728    3.1412239   -0.6474055
C    -1.3741895    3.2147896   -0.4364030
H    -1.2997315    4.2742019   -0.6578144
C    -0.1719488    2.4994090   -0.1734588
C    -0.2043917    1.1018437    0.0192689
C     1.0513491    3.2042560   -0.0676222
H     1.0427344    4.2819499   -0.1896997
C     2.1942091    2.5487446    0.2579577
H     3.1168527    3.0912848    0.4334727
C     2.2216473    1.1336562    0.2934990
C     1.0486931    0.3945528    0.0302412
C     3.4483363    0.4614633    0.5573939
H     4.3095794    1.0606054    0.8334846
C     3.5427346   -0.8855926    0.4749463
H     4.4731467   -1.3939704    0.7038822
C     2.4490052   -1.6474447   -0.0196319
C     1.2150704   -1.0057258   -0.3013573
C     0.2531113   -1.7434440   -1.0216591
H    -0.6541356   -1.2535051   -1.3462847
C     0.4494193   -3.0628597   -1.3413779
H    -0.3083162   -3.5944309   -1.9054060
C     1.6251726   -3.7207967   -0.9552541
H     1.7670048   -4.7687404   -1.1927019
C     2.6109872   -3.0144177   -0.3183050
H     3.5525612   -3.4902813   -0.0646367
Bq        -1.9155514671     2.7817053222    -0.1667430480
Bq        -1.9424453364     2.9535505438     0.5113026286
Bq        -1.9117094858     2.7571560048    -0.2636067161
Bq        -1.9462873178     2.9780998612     0.6081662967
Bq        -1.9078675045     2.7326066875    -0.3604703842
Bq        -1.9270774111     2.8553532743     0.1238479563
Bq        -1.9299464382     2.9768424236     0.1961815949
Bq        -1.9222624756     2.9277437889     0.0024542588
Bq        -1.9337884196     3.0013917410     0.2930452630
Bq        -1.9184204942     2.9031944715    -0.0944094093
Bq        -1.9376304009     3.0259410584     0.3899089311
Bq        -1.9145785129     2.8786451541    -0.1912730774
Bq        -1.9414723822     3.0504903758     0.4867725992
Bq        -1.9107365316     2.8540958368    -0.2881367455
Bq        -1.9453143635     3.0750396931     0.5836362673
Bq        -1.9068945503     2.8295465194    -0.3850004136
Bq        -1.9261044569     2.9522931063     0.0993179269
Bq        -1.9289734840     3.0737822556     0.1716515655
Bq        -1.9212895213     3.0246836208    -0.0220757707
Bq        -1.9328154653     3.0983315730     0.2685152336
Bq        -1.9174475400     3.0001343035    -0.1189394387
Bq        -1.9366574467     3.1228808903     0.3653789017
Bq        -1.9136055587     2.9755849861    -0.2158031068
Bq        -1.9404994280     3.1474302077     0.4622425698
Bq        -1.9097635774     2.9510356687    -0.3126667749
Bq        -1.9443414093     3.1719795251     0.5591062379
Bq        -1.9059215960     2.9264863513    -0.4095304430
Bq        -1.9251315027     3.0492329382     0.0747878974
Bq        -1.9280005298     3.1707220875     0.1471215361
Bq        -1.9203165671     3.1216234528    -0.0466058001
Bq        -1.9318425111     3.1952714049     0.2439852042
Bq        -1.9164745858     3.0970741354    -0.1434694682
Bq        -1.9356844924     3.2198207223     0.3408488723
Bq        -1.9126326045     3.0725248180    -0.2403331363
Bq        -1.9395264738     3.2443700397     0.4377125404
Bq        -1.9087906231     3.0479755006    -0.3371968044
Bq        -1.9433684551     3.2689193570     0.5345762085
Bq        -1.9049486418     3.0234261833    -0.4340604724
Bq        -1.9241585485     3.1461727701     0.0502578680
Bq        -1.9270275756     3.2676619195     0.1225915067
Bq        -1.9193436129     3.2185632847    -0.0711358295
Bq        -1.9308695569     3.2922112368     0.2194551748
Bq        -1.9155016316     3.1940139673    -0.1679994976
Bq        -1.9347115382     3.3167605542     0.3163188428
Bq        -1.9116596502     3.1694646500    -0.2648631657
Bq        -1.9385535195     3.3413098716     0.4131825109
Bq        -1.9078176689     3.1449153326    -0.3617268338
Bq        -1.9423955009     3.3658591890     0.5100461790
Bq        -1.9039756876     3.1203660152    -0.4585905019
Bq        -1.9231855942     3.2431126021     0.0257278386
Bq        -1.9260546213     3.3646017514     0.0980614772
Bq        -1.9183706587     3.3155031167    -0.0956658589
Bq        -1.9298966027     3.3891510688     0.1949251453
Bq        -1.9145286773     3.2909537993    -0.1925295270
Bq        -1.9337385840     3.4137003862     0.2917888134
Bq        -1.9106866960     3.2664044819    -0.2893931951
Bq        -1.9375805653     3.4382497035     0.3886524815
Bq        -1.9068447147     3.2418551645    -0.3862568632
Bq        -1.9414225466     3.4627990209     0.4855161496
Bq        -1.9030027334     3.2173058471    -0.4831205313
Bq        -1.9222126400     3.3400524340     0.0011978091
Bq        -1.9250816671     3.4615415833     0.0735314478
Bq        -1.9173977044     3.4124429486    -0.1201958884
Bq        -1.9289236484     3.4860909007     0.1703951159
Bq        -1.9135557231     3.3878936312    -0.2170595565
Bq        -1.9327656298     3.5106402181     0.2672587840
Bq        -1.9097137418     3.3633443138    -0.3139232245
Bq        -1.9366076111     3.5351895355     0.3641224521
Bq        -1.9058717605     3.3387949965    -0.4107868926
Bq        -1.9404495924     3.5597388528     0.4609861202
Bq        -1.9020297791     3.3142456791    -0.5076505607
Bq        -1.9212396858     3.4369922660    -0.0233322203
Bq        -1.9241087129     3.5584814153     0.0490014184
Bq        -1.9164247502     3.5093827805    -0.1447259178
Bq        -1.9279506942     3.5830307327     0.1458650865
Bq        -1.9125827689     3.4848334632    -0.2415895859
Bq        -1.9317926755     3.6075800500     0.2427287546
Bq        -1.9087407876     3.4602841458    -0.3384532540
Bq        -1.9356346569     3.6321293674     0.3395924227
Bq        -1.9048988062     3.4357348284    -0.4353169221
Bq        -1.9394766382     3.6566786848     0.4364560907
Bq        -1.9010568249     3.4111855110    -0.5321805902
Bq        -1.9202667316     3.5339320979    -0.0478622497
Bq        -1.9231357587     3.6554212472     0.0244713890
Bq        -1.9154517960     3.6063226125    -0.1692559472
Bq        -1.9269777400     3.6799705646     0.1213350570
Bq        -1.9116098147     3.5817732951    -0.2661196153
Bq        -1.9308197213     3.7045198820     0.2181987251
Bq        -1.9077678333     3.5572239777    -0.3629832834
Bq        -1.9346617026     3.7290691993     0.3150623932
Bq        -1.9039258520     3.5326746603    -0.4598469515
Bq        -1.9385036840     3.7536185167     0.4119260613
Bq        -1.9000838707     3.5081253430    -0.5567106196
Bq        -1.9192937773     3.6308719298    -0.0723922791
Bq        -1.9221628044     3.7523610792    -0.0000586405
Bq        -1.9144788418     3.7032624444    -0.1937859766
Bq        -1.9260047858     3.7769103965     0.0968050276
Bq        -1.9106368604     3.6787131270    -0.2906496447
Bq        -1.9298467671     3.8014597139     0.1936686957
Bq        -1.9067948791     3.6541638097    -0.3875133128
Bq        -1.9336887484     3.8260090313     0.2905323638
Bq        -1.9029528978     3.6296144923    -0.4843769809
Bq        -1.9375307297     3.8505583487     0.3873960319
Bq        -1.8991109165     3.6050651749    -0.5812406490
Bq        -1.9183208231     3.7278117618    -0.0969223086
Bq        -1.9211898502     3.8493009111    -0.0245886699
Bq        -1.9135058876     3.8002022763    -0.2183160061
Bq        -1.9250318315     3.8738502285     0.0722749982
Bq        -1.9096639062     3.7756529590    -0.3151796742
Bq        -1.9288738129     3.8983995458     0.1691386663
Bq        -1.9058219249     3.7511036416    -0.4120433423
Bq        -1.9327157942     3.9229488632     0.2660023344
Bq        -1.9019799436     3.7265543242    -0.5089070103
Bq        -1.9365577755     3.9474981806     0.3628660025
Bq        -1.8981379622     3.7020050068    -0.6057706784
Bq        -1.9173478689     3.8247515937    -0.1214523380
Bq        -1.9202168960     3.9462407430    -0.0491186993
Bq        -1.9125329333     3.8971421083    -0.2428460355
Bq        -1.9240588773     3.9707900604     0.0477449688
Bq        -1.9086909520     3.8725927909    -0.3397097036
Bq        -1.9279008586     3.9953393778     0.1446086369
Bq        -1.9048489707     3.8480434735    -0.4365733717
Bq        -1.9317428400     4.0198886952     0.2414723049
Bq        -1.9010069893     3.8234941562    -0.5334370398
Bq        -1.9355848213     4.0444380125     0.3383359730
Bq        -1.8971650080     3.7989448388    -0.6303007079
Bq        -1.9163749147     3.9216914257    -0.1459823674
Bq        -1.9192439418     4.0431805750    -0.0736487288
Bq        -1.9115599791     3.9940819402    -0.2673760649
Bq        -1.9230859231     4.0677298924     0.0232149393
Bq        -1.9077179978     3.9695326228    -0.3642397330
Bq        -1.9269279044     4.0922792097     0.1200786074
Bq        -1.9038760164     3.9449833055    -0.4611034011
Bq        -1.9307698857     4.1168285271     0.2169422755
Bq        -1.9000340351     3.9204339881    -0.5579670692
Bq        -1.9346118671     4.1413778445     0.3138059436
Bq        -1.8961920538     3.8958846707    -0.6548307373
Bq        -1.9154019604     4.0186312576    -0.1705123968
Bq        -1.9182709875     4.1401204069    -0.0981787582
Bq        -1.9105870249     4.0910217722    -0.2919060944
Bq        -1.9221129689     4.1646697243    -0.0013150901
Bq        -1.9067450435     4.0664724548    -0.3887697624
Bq        -1.9259549502     4.1892190417     0.0955485780
Bq        -1.9029030622     4.0419231374    -0.4856334305
Bq        -1.9297969315     4.2137683590     0.1924122461
Bq        -1.8990610809     4.0173738200    -0.5824970986
Bq        -1.9336389129     4.2383176764     0.2892759142
Bq        -1.8952190996     3.9928245027    -0.6793607667
Bq        -1.9144290062     4.1155710895    -0.1950424263
Bq        -1.9172980333     4.2370602389    -0.1227087876
Bq        -1.9096140707     4.1879616041    -0.3164361238
Bq        -1.9211400146     4.2616095562    -0.0258451195
Bq        -1.9057720893     4.1634122867    -0.4132997919
Bq        -1.9249819960     4.2861588736     0.0710185486
Bq        -1.9019301080     4.1388629694    -0.5101634600
Bq        -1.9288239773     4.3107081910     0.1678822167
Bq        -1.8980881267     4.1143136520    -0.6070271281
Bq        -1.9326659586     4.3352575084     0.2647458848
Bq        -1.8942461453     4.0897643346    -0.7038907961
Bq        -1.9134560520     4.2125109215    -0.2195724557
Bq        -1.9163250791     4.3340000708    -0.1472388170
Bq        -1.9086411164     4.2849014360    -0.3409661532
Bq        -1.9201670604     4.3585493882    -0.0503751489
Bq        -1.9047991351     4.2603521187    -0.4378298213
Bq        -1.9240090417     4.3830987055     0.0464885191
Bq        -1.9009571538     4.2358028013    -0.5346934894
Bq        -1.9278510231     4.4076480229     0.1433521872
Bq        -1.8971151724     4.2112534839    -0.6315571575
Bq        -1.9316930044     4.4321973403     0.2402158553
Bq        -1.8932731911     4.1867041665    -0.7284208256
Bq        -1.9124830978     4.3094507534    -0.2441024851
Bq        -1.9153521249     4.4309399027    -0.1717688465
Bq        -1.9076681622     4.3818412680    -0.3654961826
Bq        -1.9191941062     4.4554892201    -0.0749051784
Bq        -1.9038261809     4.3572919506    -0.4623598507
Bq        -1.9230360875     4.4800385375     0.0219584897
Bq        -1.8999841995     4.3327426332    -0.5592235188
Bq        -1.9268780688     4.5045878549     0.1188221578
Bq        -1.8961422182     4.3081933159    -0.6560871869
Bq        -1.9307200502     4.5291371722     0.2156858259
Bq        -1.8923002369     4.2836439985    -0.7529508550
Bq        -1.9115101435     4.4063905854    -0.2686325145
Bq        -1.8640784043    -0.4160516942     1.0586958888
Bq        -1.8563944416    -0.4651503290     0.8649685526
Bq        -1.8679203856    -0.3915023768     1.1555595569
Bq        -1.8525524603    -0.4896996464     0.7681048845
Bq        -1.8717623669    -0.3669530595     1.2524232249
Bq        -1.8487104789    -0.5142489637     0.6712412164
Bq        -1.8756043482    -0.3424037421     1.3492868930
Bq        -1.8448684976    -0.5387982811     0.5743775483
Bq        -1.8794463296    -0.3178544247     1.4461505611
Bq        -1.8410265163    -0.5633475985     0.4775138802
Bq        -1.8602364229    -0.4406010116     0.9618322207
Bq        -1.8631054500    -0.3191118623     1.0341658593
Bq        -1.8554214874    -0.3682104970     0.8404385232
Bq        -1.8669474314    -0.2945625449     1.1310295274
Bq        -1.8515795060    -0.3927598144     0.7435748551
Bq        -1.8707894127    -0.2700132275     1.2278931955
Bq        -1.8477375247    -0.4173091318     0.6467111870
Bq        -1.8746313940    -0.2454639102     1.3247568636

1
2
3
4
5
6
7
8
9
10
11
12
13
14
15
16
17
18
19
20
21
22
23
24
25
26
27
28
29
30
31
32
33
34
35
36
37
38
39
40
41
42
43
44
45
46
47
48
49
50
51
52
53
54
55
56
57
58
59
60
61
62
63
64
65
66
67
68
69
70
71
72
73
74
75
76
77
78
79
80
81
82
83
84
85
86
87
88
89
90
91
92
93
94
95
96
97
98
99
100
101
102
103
104
105
106
107
108
109
110
111
112
113
114
115
116
117
118
119
120
121
122
123
124
125
126
127
128
129
130
131
132
133
134
135
136
137
138
139
140
141
142
143
144
145
146
147
148
149
150
151
152
153
154
155
156
157
158
159
160
161
162
163
164
165
166
167
168
169
170
171
172
173
174
175
176
177
178
179
180
181
182
183
184
185
186
187
188
189
190
191
192
193
194
195
196
197
198
199
200
201
202
203
204
205
206
207
208
209
210
211
212
213
214
215
216
217
218
219
220
221
222
223
224
225
226
227
228
229
230
231
232
233
234
235
236

