%nproc=8
%mem=1000MB
# rb3lyp/6-311+g** NMR geom=connectivity

Title

0 1
C    -4.0500558   -0.5771862    0.8136712
H    -5.0263804   -1.0082727    1.0024760
C    -3.9381552    0.6617804    0.2400876
H    -4.8252424    1.2338890   -0.0111295
C    -2.6768410    1.2433246    0.0057578
C    -1.4974121    0.5051527    0.2848253
C    -1.6508332   -0.7338728    0.9404026
H    -0.7713646   -1.2730967    1.2633753
C    -2.8898548   -1.2624035    1.1994307
H    -2.9683706   -2.2124563    1.7152676
C    -2.5773185    2.5963696   -0.4192930
H    -3.4870728    3.1412239   -0.6474055
C    -1.3741895    3.2147896   -0.4364030
H    -1.2997315    4.2742019   -0.6578144
C    -0.1719488    2.4994090   -0.1734588
C    -0.2043917    1.1018437    0.0192689
C     1.0513491    3.2042560   -0.0676222
H     1.0427344    4.2819499   -0.1896997
C     2.1942091    2.5487446    0.2579577
H     3.1168527    3.0912848    0.4334727
C     2.2216473    1.1336562    0.2934990
C     1.0486931    0.3945528    0.0302412
C     3.4483363    0.4614633    0.5573939
H     4.3095794    1.0606054    0.8334846
C     3.5427346   -0.8855926    0.4749463
H     4.4731467   -1.3939704    0.7038822
C     2.4490052   -1.6474447   -0.0196319
C     1.2150704   -1.0057258   -0.3013573
C     0.2531113   -1.7434440   -1.0216591
H    -0.6541356   -1.2535051   -1.3462847
C     0.4494193   -3.0628597   -1.3413779
H    -0.3083162   -3.5944309   -1.9054060
C     1.6251726   -3.7207967   -0.9552541
H     1.7670048   -4.7687404   -1.1927019
C     2.6109872   -3.0144177   -0.3183050
H     3.5525612   -3.4902813   -0.0646367
Bq        -1.5865047255    -0.0364586760     1.2561644384
Bq        -1.5857967343    -0.1234241100     1.0760630446
Bq        -1.5868587211     0.0070240410     1.3462151352
Bq        -1.5854427388    -0.1669068270     0.9860123477
Bq        -1.5872127166     0.0505067580     1.4362658321
Bq        -1.5850887432    -0.2103895440     0.8959616508
Bq        -1.5875667122     0.0939894750     1.5263165290
Bq        -1.5847347476    -0.2538722610     0.8059109540
Bq        -1.5879207078     0.1374721920     1.6163672259
Bq        -1.5843807520    -0.2973549780     0.7158602571
Bq        -1.5861507299    -0.0799413930     1.1661137415
Bq        -1.5863337932     0.0535927167     1.2126820573
Bq        -1.5856258021    -0.0333727173     1.0325806636
Bq        -1.5866877888     0.0970754337     1.3027327542
Bq        -1.5852718065    -0.0768554343     0.9425299667
Bq        -1.5870417844     0.1405581507     1.3927834511
Bq        -1.5849178109    -0.1203381513     0.8524792698
Bq        -1.5873957799     0.1840408677     1.4828341480
Bq        -1.5845638153    -0.1638208683     0.7624285729
Bq        -1.5877497755     0.2275235847     1.5728848449
Bq        -1.5842098198    -0.2073035853     0.6723778760
Bq        -1.5859797976     0.0101099997     1.1226313605
Bq        -1.5861628609     0.1436441094     1.1691996763
Bq        -1.5854548698     0.0566786753     0.9890982825
Bq        -1.5865168565     0.1871268264     1.2592503732
Bq        -1.5851008742     0.0131959583     0.8990475857
Bq        -1.5868708521     0.2306095434     1.3493010701
Bq        -1.5847468786    -0.0302867587     0.8089968888
Bq        -1.5872248477     0.2740922604     1.4393517669
Bq        -1.5843928831    -0.0737694757     0.7189461919
Bq        -1.5875788432     0.3175749774     1.5294024638
Bq        -1.5840388875    -0.1172521927     0.6288954950
Bq        -1.5858088654     0.1001613924     1.0791489794
Bq        -1.5859919287     0.2336955020     1.1257172953
Bq        -1.5852839375     0.1467300680     0.9456159015
Bq        -1.5863459242     0.2771782190     1.2157679922
Bq        -1.5849299419     0.1032473510     0.8555652046
Bq        -1.5866999198     0.3206609360     1.3058186890
Bq        -1.5845759464     0.0597646340     0.7655145077
Bq        -1.5870539154     0.3641436530     1.3958693859
Bq        -1.5842219508     0.0162819170     0.6754638109
Bq        -1.5874079110     0.4076263700     1.4859200828
Bq        -1.5838679552    -0.0272008000     0.5854131140
Bq        -1.5856379331     0.1902127850     1.0356665984
Bq        -1.5858209964     0.3237468947     1.0822349142
Bq        -1.5851130052     0.2367814607     0.9021335205
Bq        -1.5861749920     0.3672296117     1.1722856111
Bq        -1.5847590097     0.1932987437     0.8120828236
Bq        -1.5865289875     0.4107123287     1.2623363080
Bq        -1.5844050141     0.1498160267     0.7220321267
Bq        -1.5868829831     0.4541950457     1.3523870049
Bq        -1.5840510185     0.1063333097     0.6319814298
Bq        -1.5872369787     0.4976777627     1.4424377018
Bq        -1.5836970229     0.0628505927     0.5419307329
Bq        -1.5854670008     0.2802641777     0.9921842174
Bq        -1.5856500641     0.4137982874     1.0387525332
Bq        -1.5849420730     0.3268328534     0.8586511394
Bq        -1.5860040597     0.4572810044     1.1288032301
Bq        -1.5845880774     0.2833501364     0.7686004426
Bq        -1.5863580553     0.5007637214     1.2188539270
Bq        -1.5842340818     0.2398674194     0.6785497457
Bq        -1.5867120508     0.5442464384     1.3089046239
Bq        -1.5838800862     0.1963847023     0.5884990488
Bq        -1.5870660464     0.5877291554     1.3989553207
Bq        -1.5835260907     0.1529019853     0.4984483519
Bq        -1.5852960685     0.3703155704     0.9487018363
Bq        -1.5854791318     0.5038496800     0.9952701522
Bq        -1.5847711407     0.4168842460     0.8151687584
Bq        -1.5858331274     0.5473323970     1.0853208491
Bq        -1.5844171451     0.3734015290     0.7251180615
Bq        -1.5861871230     0.5908151140     1.1753715459
Bq        -1.5840631495     0.3299188120     0.6350673646
Bq        -1.5865411186     0.6342978311     1.2654222428
Bq        -1.5837091540     0.2864360950     0.5450166678
Bq        -1.5868951141     0.6777805481     1.3554729397
Bq        -1.5833551584     0.2429533780     0.4549659709
Bq        -1.5851251363     0.4603669630     0.9052194553
Bq        -1.5853081996     0.5939010727     0.9517877711
Bq        -1.5846002084     0.5069356387     0.7716863774
Bq        -1.5856621951     0.6373837897     1.0418384680
Bq        -1.5842462128     0.4634529217     0.6816356805
Bq        -1.5860161907     0.6808665067     1.1318891649
Bq        -1.5838922173     0.4199702047     0.5915849836
Bq        -1.5863701863     0.7243492237     1.2219398618
Bq        -1.5835382217     0.3764874877     0.5015342867
Bq        -1.5867241819     0.7678319407     1.3119905587
Bq        -1.5831842261     0.3330047707     0.4114835898
Bq        -1.5849542040     0.5504183557     0.8617370743
Bq        -1.5851372673     0.6839524654     0.9083053901
Bq        -1.5844292761     0.5969870314     0.7282039963
Bq        -1.5854912629     0.7274351824     0.9983560870
Bq        -1.5840752806     0.5535043144     0.6381532995
Bq        -1.5858452584     0.7709178994     1.0884067839
Bq        -1.5837212850     0.5100215974     0.5481026026
Bq        -1.5861992540     0.8144006164     1.1784574808
Bq        -1.5833672894     0.4665388804     0.4580519057
Bq        -1.5865532496     0.8578833334     1.2685081776
Bq        -1.5830132938     0.4230561634     0.3680012088
Bq        -1.5847832717     0.6404697484     0.8182546932
Bq        -1.5849663350     0.7740038581     0.8648230091
Bq        -1.5842583439     0.6870384240     0.6847216153
Bq        -1.5853203306     0.8174865751     0.9548737060
Bq        -1.5839043483     0.6435557070     0.5946709184
Bq        -1.5856743262     0.8609692921     1.0449244028
Bq        -1.5835503527     0.6000729900     0.5046202215
Bq        -1.5860283217     0.9044520091     1.1349750997
Bq        -1.5831963571     0.5565902730     0.4145695247
Bq        -1.5863823173     0.9479347261     1.2250257966
Bq        -1.5828423616     0.5131075560     0.3245188278
Bq        -1.5846123394     0.7305211410     0.7747723122
Bq        -1.5847954027     0.8640552507     0.8213406280
Bq        -1.5840874116     0.7770898167     0.6412392343
Bq        -1.5851493983     0.9075379677     0.9113913249
Bq        -1.5837334160     0.7336070997     0.5511885374
Bq        -1.5855033939     0.9510206847     1.0014420218
Bq        -1.5833794204     0.6901243827     0.4611378405
Bq        -1.5858573895     0.9945034017     1.0914927187
Bq        -1.5830254249     0.6466416657     0.3710871436
Bq        -1.5862113850     1.0379861187     1.1815434156
Bq        -1.5826714293     0.6031589487     0.2810364467
Bq        -1.5844414072     0.8205725337     0.7312899312
Bq        -1.5846244705     0.9541066434     0.7778582470
Bq        -1.5839164793     0.8671412094     0.5977568532
Bq        -1.5849784660     0.9975893604     0.8679089439
Bq        -1.5835624837     0.8236584924     0.5077061564
Bq        -1.5853324616     1.0410720774     0.9579596408
Bq        -1.5832084882     0.7801757754     0.4176554595
Bq        -1.5856864572     1.0845547944     1.0480103377
Bq        -1.5828544926     0.7366930584     0.3276047626
Bq        -1.5860404528     1.1280375114     1.1380610345
Bq        -1.5825004970     0.6932103414     0.2375540657
Bq        -1.5842704749     0.9106239264     0.6878075501
Bq        -1.5844535382     1.0441580361     0.7343758660
Bq        -1.5837455470     0.9571926021     0.5542744722
Bq        -1.5848075338     1.0876407531     0.8244265629
Bq        -1.5833915515     0.9137098850     0.4642237753
Bq        -1.5851615293     1.1311234701     0.9144772597
Bq        -1.5830375559     0.8702271680     0.3741730784
Bq        -1.5855155249     1.1746061871     1.0045279566
Bq        -1.5826835603     0.8267444510     0.2841223816
Bq        -1.5858695205     1.2180889041     1.0945786535
Bq        -1.5823295647     0.7832617340     0.1940716847
Bq        -1.5840995426     1.0006753191     0.6443251691
Bq        -1.5842826059     1.1342094287     0.6908934849
Bq        -1.5835746148     1.0472439947     0.5107920912
Bq        -1.5846366015     1.1776921457     0.7809441818
Bq        -1.5832206192     1.0037612777     0.4207413943
Bq        -1.5849905971     1.2211748627     0.8709948787
Bq        -1.5828666236     0.9602785607     0.3306906974
Bq        -1.5853445926     1.2646575797     0.9610455756
Bq        -1.5825126280     0.9167958437     0.2406400005
Bq        -1.5856985882     1.3081402968     1.0510962725
Bq        -1.5821586325     0.8733131267     0.1505893036
Bq        -1.5839286103     1.0907267117     0.6008427881
Bq        -1.5841116736     1.2242608214     0.6474111039
Bq        -1.5834036825     1.1372953874     0.4673097101
Bq        -1.5844656692     1.2677435384     0.7374618008
Bq        -1.5830496869     1.0938126704     0.3772590133
Bq        -1.5848196648     1.3112262554     0.8275124977
Bq        -1.5826956913     1.0503299534     0.2872083164
Bq        -1.5851736604     1.3547089724     0.9175631946
Bq        -1.5823416958     1.0068472364     0.1971576195
Bq        -1.5855276559     1.3981916894     1.0076138914
Bq        -1.5819877002     0.9633645194     0.1071069226
Bq        -1.5837576781     1.1807781044     0.5573604070
Bq        -1.5839407414     1.3143122141     0.6039287229
Bq        -1.5832327502     1.2273467801     0.4238273291
Bq        -1.5842947369     1.3577949311     0.6939794198
Bq        -1.5828787546     1.1838640631     0.3337766322
Bq        -1.5846487325     1.4012776481     0.7840301166
Bq        -1.5825247591     1.1403813461     0.2437259353
Bq        -1.5850027281     1.4447603651     0.8740808135
Bq        -1.5821707635     1.0968986291     0.1536752385
Bq        -1.5853567237     1.4882430821     0.9641315104
Bq        -1.5818167679     1.0534159120     0.0636245416
Bq        -1.5835867458     1.2708294971     0.5138780260
Bq        -1.5837698091     1.4043636067     0.5604463418
Bq        -1.5830618179     1.3173981727     0.3803449481
Bq        -1.5841238047     1.4478463237     0.6504970387
Bq        -1.5827078224     1.2739154557     0.2902942512
Bq        -1.5844778002     1.4913290408     0.7405477356
Bq        -1.5823538268     1.2304327387     0.2002435543
Bq        -1.5848317958     1.5348117578     0.8305984325
Bq        -1.5819998312     1.1869500217     0.1101928574
Bq        -1.5851857914     1.5782944748     0.9206491294
Bq        -1.5816458356     1.1434673047     0.0201421606
Bq        -1.5834158135     1.3608808897     0.4703956450
Bq        -1.5835988768     1.4944149994     0.5169639608
Bq        -1.5828908857     1.4074495654     0.3368625670
Bq        -1.5839528724     1.5378977164     0.6070146577
Bq        -1.5825368901     1.3639668484     0.2468118702
Bq        -1.5843068680     1.5813804334     0.6970653546
Bq        -1.5821828945     1.3204841314     0.1567611733
Bq        -1.5846608635     1.6248631504     0.7871160515
Bq        -1.5818288989     1.2770014144     0.0667104764
Bq        -1.5850148591     1.6683458674     0.8771667483
Bq        -1.5814749034     1.2335186974    -0.0233402205
Bq        -1.5832448812     1.4509322824     0.4269132639
Bq        -1.5834279445     1.5844663921     0.4734815798
Bq        -1.5827199534     1.4975009581     0.2933801860

1
2
3
4
5
6
7
8
9
10
11
12
13
14
15
16
17
18
19
20
21
22
23
24
25
26
27
28
29
30
31
32
33
34
35
36
37
38
39
40
41
42
43
44
45
46
47
48
49
50
51
52
53
54
55
56
57
58
59
60
61
62
63
64
65
66
67
68
69
70
71
72
73
74
75
76
77
78
79
80
81
82
83
84
85
86
87
88
89
90
91
92
93
94
95
96
97
98
99
100
101
102
103
104
105
106
107
108
109
110
111
112
113
114
115
116
117
118
119
120
121
122
123
124
125
126
127
128
129
130
131
132
133
134
135
136
137
138
139
140
141
142
143
144
145
146
147
148
149
150
151
152
153
154
155
156
157
158
159
160
161
162
163
164
165
166
167
168
169
170
171
172
173
174
175
176
177
178
179
180
181
182
183
184
185
186
187
188
189
190
191
192
193
194
195
196
197
198
199
200
201
202
203
204
205
206
207
208
209
210
211
212
213
214
215
216
217
218
219
220
221
222
223
224
225
226
227
228
229
230
231
232
233
234
235
236

