%nproc=8
%mem=1000MB
# rb3lyp/6-311+g** NMR geom=connectivity

Title

0 1
C    -4.0500558   -0.5771862    0.8136712
H    -5.0263804   -1.0082727    1.0024760
C    -3.9381552    0.6617804    0.2400876
H    -4.8252424    1.2338890   -0.0111295
C    -2.6768410    1.2433246    0.0057578
C    -1.4974121    0.5051527    0.2848253
C    -1.6508332   -0.7338728    0.9404026
H    -0.7713646   -1.2730967    1.2633753
C    -2.8898548   -1.2624035    1.1994307
H    -2.9683706   -2.2124563    1.7152676
C    -2.5773185    2.5963696   -0.4192930
H    -3.4870728    3.1412239   -0.6474055
C    -1.3741895    3.2147896   -0.4364030
H    -1.2997315    4.2742019   -0.6578144
C    -0.1719488    2.4994090   -0.1734588
C    -0.2043917    1.1018437    0.0192689
C     1.0513491    3.2042560   -0.0676222
H     1.0427344    4.2819499   -0.1896997
C     2.1942091    2.5487446    0.2579577
H     3.1168527    3.0912848    0.4334727
C     2.2216473    1.1336562    0.2934990
C     1.0486931    0.3945528    0.0302412
C     3.4483363    0.4614633    0.5573939
H     4.3095794    1.0606054    0.8334846
C     3.5427346   -0.8855926    0.4749463
H     4.4731467   -1.3939704    0.7038822
C     2.4490052   -1.6474447   -0.0196319
C     1.2150704   -1.0057258   -0.3013573
C     0.2531113   -1.7434440   -1.0216591
H    -0.6541356   -1.2535051   -1.3462847
C     0.4494193   -3.0628597   -1.3413779
H    -0.3083162   -3.5944309   -1.9054060
C     1.6251726   -3.7207967   -0.9552541
H     1.7670048   -4.7687404   -1.1927019
C     2.6109872   -3.0144177   -0.3183050
H     3.5525612   -3.4902813   -0.0646367
Bq        -1.1203042035     0.7347262878     0.2043944402
Bq        -1.1637320626     0.7494667431     0.5008682840
Bq        -1.1058282505     0.7298128028     0.1055698257
Bq        -1.1782080157     0.7543802282     0.5996928986
Bq        -1.0913522974     0.7248993177     0.0067452111
Bq        -1.1926839687     0.7592937133     0.6985175132
Bq        -1.0768763444     0.7199858326    -0.0920794035
Bq        -1.2071599218     0.7642071983     0.7973421278
Bq        -1.0624003913     0.7150723475    -0.1909040181
Bq        -1.1347801565     0.7396397729     0.3032190548
Bq        -1.1485439757     0.8444324734     0.3971820646
Bq        -1.1195920696     0.8346055032     0.1995328355
Bq        -1.1630199287     0.8493459585     0.4960066792
Bq        -1.1051161165     0.8296920181     0.1007082209
Bq        -1.1774958817     0.8542594436     0.5948312938
Bq        -1.0906401635     0.8247785331     0.0018836063
Bq        -1.1919718348     0.8591729286     0.6936559084
Bq        -1.0761642104     0.8198650480    -0.0969410083
Bq        -1.2064477878     0.8640864137     0.7924805230
Bq        -1.0616882574     0.8149515629    -0.1957656229
Bq        -1.1340680226     0.8395189883     0.2983574501
Bq        -1.1478318417     0.9443116888     0.3923204599
Bq        -1.1188799356     0.9344847186     0.1946712307
Bq        -1.1623077948     0.9492251739     0.4911450745
Bq        -1.1044039826     0.9295712335     0.0958466161
Bq        -1.1767837478     0.9541386589     0.5899696890
Bq        -1.0899280295     0.9246577484    -0.0029779985
Bq        -1.1912597008     0.9590521440     0.6887943036
Bq        -1.0754520765     0.9197442634    -0.1018026130
Bq        -1.2057356539     0.9639656291     0.7876189182
Bq        -1.0609761234     0.9148307783    -0.2006272276
Bq        -1.1333558887     0.9393982037     0.2934958453
Bq        -1.1471197078     1.0441909041     0.3874588551
Bq        -1.1181678017     1.0343639340     0.1898096259
Bq        -1.1615956608     1.0491043892     0.4862834697
Bq        -1.1036918486     1.0294504489     0.0909850114
Bq        -1.1760716139     1.0540178743     0.5851080843
Bq        -1.0892158956     1.0245369638    -0.0078396032
Bq        -1.1905475669     1.0589313594     0.6839326989
Bq        -1.0747399425     1.0196234787    -0.1066642178
Bq        -1.2050235199     1.0638448445     0.7827573135
Bq        -1.0602639895     1.0147099936    -0.2054888324
Bq        -1.1326437547     1.0392774191     0.2886342405
Bq        -1.1464075738     1.1440701195     0.3825972503
Bq        -1.1174556677     1.1342431494     0.1849480212
Bq        -1.1608835269     1.1489836046     0.4814218649
Bq        -1.1029797147     1.1293296643     0.0861234066
Bq        -1.1753594799     1.1538970897     0.5802464795
Bq        -1.0885037616     1.1244161792    -0.0127012080
Bq        -1.1898354330     1.1588105748     0.6790710941
Bq        -1.0740278086     1.1195026941    -0.1115258226
Bq        -1.2043113860     1.1637240599     0.7778957087
Bq        -1.0595518556     1.1145892090    -0.2103504372
Bq        -1.1319316208     1.1391566344     0.2837726358
Bq        -1.1456954399     1.2439493349     0.3777356456
Bq        -1.1167435338     1.2341223647     0.1800864164
Bq        -1.1601713929     1.2488628200     0.4765602602
Bq        -1.1022675808     1.2292088797     0.0812618018
Bq        -1.1746473460     1.2537763051     0.5753848747
Bq        -1.0877916277     1.2242953946    -0.0175628128
Bq        -1.1891232990     1.2586897901     0.6742094893
Bq        -1.0733156747     1.2193819095    -0.1163874273
Bq        -1.2035992521     1.2636032752     0.7730341039
Bq        -1.0588397216     1.2144684244    -0.2152120419
Bq        -1.1312194868     1.2390358498     0.2789110310
Bq        -1.1449833059     1.3438285503     0.3728740408
Bq        -1.1160313999     1.3340015801     0.1752248116
Bq        -1.1594592590     1.3487420354     0.4716986554
Bq        -1.1015554468     1.3290880950     0.0764001971
Bq        -1.1739352120     1.3536555204     0.5705232700
Bq        -1.0870794938     1.3241746099    -0.0224244175
Bq        -1.1884111651     1.3585690055     0.6693478846
Bq        -1.0726035407     1.3192611249    -0.1212490321
Bq        -1.2028871181     1.3634824906     0.7681724992
Bq        -1.0581275877     1.3143476398    -0.2200736467
Bq        -1.1305073529     1.3389150652     0.2740494262
Bq        -1.1442711720     1.4437077657     0.3680124360
Bq        -1.1153192659     1.4338807955     0.1703632069
Bq        -1.1587471250     1.4486212507     0.4668370506
Bq        -1.1008433129     1.4289673104     0.0715385923
Bq        -1.1732230781     1.4535347358     0.5656616652
Bq        -1.0863673598     1.4240538253    -0.0272860223
Bq        -1.1876990311     1.4584482209     0.6644862798
Bq        -1.0718914068     1.4191403402    -0.1261106369
Bq        -1.2021749842     1.4633617060     0.7633108944
Bq        -1.0574154537     1.4142268552    -0.2249352515
Bq        -1.1297952190     1.4387942806     0.2691878215
Bq        -1.1435590381     1.5435869810     0.3631508313
Bq        -1.1146071320     1.5337600109     0.1655016021
Bq        -1.1580349911     1.5485004661     0.4619754459
Bq        -1.1001311789     1.5288465258     0.0666769875
Bq        -1.1725109441     1.5534139512     0.5608000604
Bq        -1.0856552259     1.5239330407    -0.0321476271
Bq        -1.1869868972     1.5583274363     0.6596246750
Bq        -1.0711792728     1.5190195556    -0.1309722416
Bq        -1.2014628502     1.5632409214     0.7584492896
Bq        -1.0567033198     1.5141060705    -0.2297968562
Bq        -1.1290830850     1.5386734959     0.2643262167
Bq        -1.1428469041     1.6434661964     0.3582892265
Bq        -1.1138949980     1.6336392262     0.1606399973
Bq        -1.1573228572     1.6483796815     0.4571138411
Bq        -1.0994190450     1.6287257412     0.0618153828
Bq        -1.1717988102     1.6532931666     0.5559384557
Bq        -1.0849430919     1.6238122561    -0.0370092318
Bq        -1.1862747633     1.6582066517     0.6547630703
Bq        -1.0704671389     1.6188987710    -0.1358338464
Bq        -1.2007507163     1.6631201367     0.7535876849
Bq        -1.0559911859     1.6139852859    -0.2346584610
Bq        -1.1283709511     1.6385527113     0.2594646119
Bq        -1.1421347702     1.7433454118     0.3534276217
Bq        -1.1131828641     1.7335184416     0.1557783926
Bq        -1.1566107232     1.7482588969     0.4522522363
Bq        -1.0987069110     1.7286049565     0.0569537780
Bq        -1.1710866763     1.7531723819     0.5510768509
Bq        -1.0842309580     1.7236914715    -0.0418708366
Bq        -1.1855626293     1.7580858670     0.6499014655
Bq        -1.0697550050     1.7187779864    -0.1406954512
Bq        -1.2000385824     1.7629993521     0.7487260801
Bq        -1.0552790519     1.7138645013    -0.2395200658
Bq        -1.1276588171     1.7384319267     0.2546030072
Bq        -1.1414226362     1.8432246272     0.3485660170
Bq        -1.1124707301     1.8333976570     0.1509167878
Bq        -1.1558985893     1.8481381122     0.4473906316
Bq        -1.0979947771     1.8284841719     0.0520921732
Bq        -1.1703745423     1.8530515973     0.5462152462
Bq        -1.0835188241     1.8235706868    -0.0467324414
Bq        -1.1848504954     1.8579650824     0.6450398607
Bq        -1.0690428710     1.8186572017    -0.1455570559
Bq        -1.1993264484     1.8628785675     0.7438644753
Bq        -1.0545669180     1.8137437167    -0.2443816705
Bq        -1.1269466832     1.8383111421     0.2497414024
Bq        -1.1407105023     1.9431038425     0.3437044122
Bq        -1.1117585962     1.9332768724     0.1460551830
Bq        -1.1551864553     1.9480173276     0.4425290268
Bq        -1.0972826432     1.9283633873     0.0472305685
Bq        -1.1696624084     1.9529308127     0.5413536414
Bq        -1.0828066901     1.9234499022    -0.0515940461
Bq        -1.1841383614     1.9578442978     0.6401782560
Bq        -1.0683307371     1.9185364171    -0.1504186607
Bq        -1.1986143145     1.9627577829     0.7390028706
Bq        -1.0538547840     1.9136229320    -0.2492432753
Bq        -1.1262345492     1.9381903575     0.2448797976
Bq        -1.1399983684     2.0429830579     0.3388428074
Bq        -1.1110464623     2.0331560878     0.1411935783
Bq        -1.1544743214     2.0478965430     0.4376674220
Bq        -1.0965705092     2.0282426027     0.0423689637
Bq        -1.1689502744     2.0528100281     0.5364920366
Bq        -1.0820945562     2.0233291176    -0.0564556509
Bq        -1.1834262275     2.0577235132     0.6353166512
Bq        -1.0676186031     2.0184156325    -0.1552802655
Bq        -1.1979021805     2.0626369982     0.7341412658
Bq        -1.0531426501     2.0135021474    -0.2541048801
Bq        -1.1255224153     2.0380695728     0.2400181929
Bq        -1.1392862344     2.1428622733     0.3339812027
Bq        -1.1103343283     2.1330353031     0.1363319735
Bq        -1.1537621875     2.1477757584     0.4328058173
Bq        -1.0958583753     2.1281218180     0.0375073589
Bq        -1.1682381405     2.1526892435     0.5316304319
Bq        -1.0813824222     2.1232083330    -0.0613172557
Bq        -1.1827140935     2.1576027285     0.6304550464
Bq        -1.0669064692     2.1182948479    -0.1601418702
Bq        -1.1971900466     2.1625162136     0.7292796610
Bq        -1.0524305161     2.1133813628    -0.2589664848
Bq        -1.1248102814     2.1379487882     0.2351565881
Bq        -1.1385741005     2.2427414887     0.3291195979
Bq        -1.1096221944     2.2329145185     0.1314703687
Bq        -1.1530500535     2.2476549738     0.4279442125
Bq        -1.0951462413     2.2280010334     0.0326457542
Bq        -1.1675260066     2.2525684588     0.5267688271
Bq        -1.0806702883     2.2230875483    -0.0661788604
Bq        -1.1820019596     2.2574819439     0.6255934417
Bq        -1.0661943352     2.2181740633    -0.1650034750
Bq        -1.1964779126     2.2623954290     0.7244180563
Bq        -1.0517183822     2.2132605782    -0.2638280896
Bq        -1.1240981474     2.2378280036     0.2302949833
Bq        -1.1378619665     2.3426207040     0.3242579931
Bq        -1.1089100604     2.3327937339     0.1266087640
Bq        -1.1523379196     2.3475341891     0.4230826077
Bq        -1.0944341074     2.3278802488     0.0277841494
Bq        -1.1668138726     2.3524476742     0.5219072223
Bq        -1.0799581543     2.3229667637    -0.0710404652
Bq        -1.1812898257     2.3573611593     0.6207318369
Bq        -1.0654822013     2.3180532786    -0.1698650798
Bq        -1.1957657787     2.3622746444     0.7195564515
Bq        -1.0510062483     2.3131397936    -0.2686896944
Bq        -1.1233860135     2.3377072190     0.2254333786
Bq        -1.1371498326     2.4424999194     0.3193963884
Bq        -1.1081979265     2.4326729493     0.1217471592
Bq        -1.1516257856     2.4474134045     0.4182210030
Bq        -1.0937219735     2.4277594642     0.0229225446
Bq        -1.1661017387     2.4523268896     0.5170456176
Bq        -1.0792460204     2.4228459791    -0.0759020700
Bq        -1.1805776917     2.4572403747     0.6158702321
Bq        -1.0647700674     2.4179324940    -0.1747266845
Bq        -1.1950536448     2.4621538598     0.7146948467
Bq        -1.0502941143     2.4130190089    -0.2735512991
Bq        -1.1226738795     2.4375864343     0.2205717738
Bq        -1.1364376986     2.5423791348     0.3145347836
Bq        -1.1074857926     2.5325521646     0.1168855544
Bq        -1.1509136517     2.5472926199     0.4133593982

1
2
3
4
5
6
7
8
9
10
11
12
13
14
15
16
17
18
19
20
21
22
23
24
25
26
27
28
29
30
31
32
33
34
35
36
37
38
39
40
41
42
43
44
45
46
47
48
49
50
51
52
53
54
55
56
57
58
59
60
61
62
63
64
65
66
67
68
69
70
71
72
73
74
75
76
77
78
79
80
81
82
83
84
85
86
87
88
89
90
91
92
93
94
95
96
97
98
99
100
101
102
103
104
105
106
107
108
109
110
111
112
113
114
115
116
117
118
119
120
121
122
123
124
125
126
127
128
129
130
131
132
133
134
135
136
137
138
139
140
141
142
143
144
145
146
147
148
149
150
151
152
153
154
155
156
157
158
159
160
161
162
163
164
165
166
167
168
169
170
171
172
173
174
175
176
177
178
179
180
181
182
183
184
185
186
187
188
189
190
191
192
193
194
195
196
197
198
199
200
201
202
203
204
205
206
207
208
209
210
211
212
213
214
215
216
217
218
219
220
221
222
223
224
225
226
227
228
229
230
231
232
233
234
235
236

