%nproc=8
%mem=1000MB
# rb3lyp/6-311+g** NMR geom=connectivity

Title

0 1
C    -4.0500558   -0.5771862    0.8136712
H    -5.0263804   -1.0082727    1.0024760
C    -3.9381552    0.6617804    0.2400876
H    -4.8252424    1.2338890   -0.0111295
C    -2.6768410    1.2433246    0.0057578
C    -1.4974121    0.5051527    0.2848253
C    -1.6508332   -0.7338728    0.9404026
H    -0.7713646   -1.2730967    1.2633753
C    -2.8898548   -1.2624035    1.1994307
H    -2.9683706   -2.2124563    1.7152676
C    -2.5773185    2.5963696   -0.4192930
H    -3.4870728    3.1412239   -0.6474055
C    -1.3741895    3.2147896   -0.4364030
H    -1.2997315    4.2742019   -0.6578144
C    -0.1719488    2.4994090   -0.1734588
C    -0.2043917    1.1018437    0.0192689
C     1.0513491    3.2042560   -0.0676222
H     1.0427344    4.2819499   -0.1896997
C     2.1942091    2.5487446    0.2579577
H     3.1168527    3.0912848    0.4334727
C     2.2216473    1.1336562    0.2934990
C     1.0486931    0.3945528    0.0302412
C     3.4483363    0.4614633    0.5573939
H     4.3095794    1.0606054    0.8334846
C     3.5427346   -0.8855926    0.4749463
H     4.4731467   -1.3939704    0.7038822
C     2.4490052   -1.6474447   -0.0196319
C     1.2150704   -1.0057258   -0.3013573
C     0.2531113   -1.7434440   -1.0216591
H    -0.6541356   -1.2535051   -1.3462847
C     0.4494193   -3.0628597   -1.3413779
H    -0.3083162   -3.5944309   -1.9054060
C     1.6251726   -3.7207967   -0.9552541
H     1.7670048   -4.7687404   -1.1927019
C     2.6109872   -3.0144177   -0.3183050
H     3.5525612   -3.4902813   -0.0646367
Bq        -0.8211808170     3.1216234528    -0.0030098976
Bq        -0.8327067609     3.1952714049     0.2875811067
Bq        -0.8173388356     3.0970741354    -0.0998735657
Bq        -0.8365487423     3.2198207223     0.3844447748
Bq        -0.8134968543     3.0725248180    -0.1967372338
Bq        -0.8403907236     3.2443700397     0.4813084429
Bq        -0.8096548730     3.0479755006    -0.2936009019
Bq        -0.8442327049     3.2689193570     0.5781721110
Bq        -0.8058128916     3.0234261833    -0.3904645699
Bq        -0.8250227983     3.1461727701     0.0938537705
Bq        -0.8278918254     3.2676619195     0.1661874092
Bq        -0.8202078627     3.2185632847    -0.0275399270
Bq        -0.8317338067     3.2922112368     0.2630510773
Bq        -0.8163658814     3.1940139673    -0.1244035951
Bq        -0.8355757881     3.3167605542     0.3599147454
Bq        -0.8125239001     3.1694646500    -0.2212672632
Bq        -0.8394177694     3.3413098716     0.4567784134
Bq        -0.8086819187     3.1449153326    -0.3181309313
Bq        -0.8432597507     3.3658591890     0.5536420815
Bq        -0.8048399374     3.1203660152    -0.4149945994
Bq        -0.8240498441     3.2431126021     0.0693237411
Bq        -0.8269188712     3.3646017514     0.1416573797
Bq        -0.8192349085     3.3155031167    -0.0520699564
Bq        -0.8307608525     3.3891510688     0.2385210478
Bq        -0.8153929272     3.2909537993    -0.1489336245
Bq        -0.8346028338     3.4137003862     0.3353847159
Bq        -0.8115509459     3.2664044819    -0.2457972926
Bq        -0.8384448152     3.4382497035     0.4322483840
Bq        -0.8077089645     3.2418551645    -0.3426609607
Bq        -0.8422867965     3.4627990209     0.5291120521
Bq        -0.8038669832     3.2173058471    -0.4395246288
Bq        -0.8230768898     3.3400524340     0.0447937117
Bq        -0.8259459169     3.4615415833     0.1171273503
Bq        -0.8182619543     3.4124429486    -0.0765999859
Bq        -0.8297878983     3.4860909007     0.2139910184
Bq        -0.8144199730     3.3878936312    -0.1734636540
Bq        -0.8336298796     3.5106402181     0.3108546865
Bq        -0.8105779916     3.3633443138    -0.2703273220
Bq        -0.8374718609     3.5351895355     0.4077183546
Bq        -0.8067360103     3.3387949965    -0.3671909901
Bq        -0.8413138423     3.5597388528     0.5045820227
Bq        -0.8028940290     3.3142456791    -0.4640546582
Bq        -0.8221039356     3.4369922660     0.0202636822
Bq        -0.8249729627     3.5584814153     0.0925973209
Bq        -0.8172890001     3.5093827805    -0.1011300153
Bq        -0.8288149440     3.5830307327     0.1894609890
Bq        -0.8134470187     3.4848334632    -0.1979936834
Bq        -0.8326569254     3.6075800500     0.2863246571
Bq        -0.8096050374     3.4602841458    -0.2948573515
Bq        -0.8364989067     3.6321293674     0.3831883252
Bq        -0.8057630561     3.4357348284    -0.3917210196
Bq        -0.8403408880     3.6566786848     0.4800519933
Bq        -0.8019210747     3.4111855110    -0.4885846876
Bq        -0.8211309814     3.5339320979    -0.0042663472
Bq        -0.8240000085     3.6554212472     0.0680672915
Bq        -0.8163160458     3.6063226125    -0.1256600447
Bq        -0.8278419898     3.6799705646     0.1649309596
Bq        -0.8124740645     3.5817732951    -0.2225237128
Bq        -0.8316839712     3.7045198820     0.2617946276
Bq        -0.8086320832     3.5572239777    -0.3193873809
Bq        -0.8355259525     3.7290691993     0.3586582957
Bq        -0.8047901018     3.5326746603    -0.4162510490
Bq        -0.8393679338     3.7536185167     0.4555219638
Bq        -0.8009481205     3.5081253430    -0.5131147171
Bq        -0.8201580272     3.6308719298    -0.0287963766
Bq        -0.8230270543     3.7523610792     0.0435372620
Bq        -0.8153430916     3.7032624444    -0.1501900741
Bq        -0.8268690356     3.7769103965     0.1404009301
Bq        -0.8115011103     3.6787131270    -0.2470537422
Bq        -0.8307110169     3.8014597139     0.2372645982
Bq        -0.8076591290     3.6541638097    -0.3439174103
Bq        -0.8345529983     3.8260090313     0.3341282663
Bq        -0.8038171476     3.6296144923    -0.4407810784
Bq        -0.8383949796     3.8505583487     0.4309919344
Bq        -0.7999751663     3.6050651749    -0.5376447465
Bq        -0.8191850729     3.7278117618    -0.0533264061
Bq        -0.8220541000     3.8493009111     0.0190072326
Bq        -0.8143701374     3.8002022763    -0.1747201036
Bq        -0.8258960814     3.8738502285     0.1158709007
Bq        -0.8105281561     3.7756529590    -0.2715837717
Bq        -0.8297380627     3.8983995458     0.2127345688
Bq        -0.8066861747     3.7511036416    -0.3684474398
Bq        -0.8335800440     3.9229488632     0.3095982369
Bq        -0.8028441934     3.7265543242    -0.4653111078
Bq        -0.8374220254     3.9474981806     0.4064619050
Bq        -0.7990022121     3.7020050068    -0.5621747759
Bq        -0.8182121187     3.8247515937    -0.0778564355
Bq        -0.8210811458     3.9462407430    -0.0055227968
Bq        -0.8133971832     3.8971421083    -0.1992501330
Bq        -0.8249231272     3.9707900604     0.0913408713
Bq        -0.8095552018     3.8725927909    -0.2961138011
Bq        -0.8287651085     3.9953393778     0.1882045394
Bq        -0.8057132205     3.8480434735    -0.3929774692
Bq        -0.8326070898     4.0198886952     0.2850682075
Bq        -0.8018712392     3.8234941562    -0.4898411373
Bq        -0.8364490711     4.0444380125     0.3819318755
Bq        -0.7980292578     3.7989448388    -0.5867048054
Bq        -0.8172391645     3.9216914257    -0.1023864649
Bq        -0.8201081916     4.0431805750    -0.0300528262
Bq        -0.8124242289     3.9940819402    -0.2237801624
Bq        -0.8239501729     4.0677298924     0.0668108418
Bq        -0.8085822476     3.9695326228    -0.3206438305
Bq        -0.8277921543     4.0922792097     0.1636745099
Bq        -0.8047402663     3.9449833055    -0.4175074986
Bq        -0.8316341356     4.1168285271     0.2605381780
Bq        -0.8008982850     3.9204339881    -0.5143711667
Bq        -0.8354761169     4.1413778445     0.3574018461
Bq        -0.7970563036     3.8958846707    -0.6112348348
Bq        -0.8162662103     4.0186312576    -0.1269164943
Bq        -0.8191352374     4.1401204069    -0.0545828557
Bq        -0.8114512747     4.0910217722    -0.2483101919
Bq        -0.8229772187     4.1646697243     0.0422808124
Bq        -0.8076092934     4.0664724548    -0.3451738599
Bq        -0.8268192000     4.1892190417     0.1391444805
Bq        -0.8037673121     4.0419231374    -0.4420375280
Bq        -0.8306611814     4.2137683590     0.2360081486
Bq        -0.7999253307     4.0173738200    -0.5389011961
Bq        -0.8345031627     4.2383176764     0.3328718167
Bq        -0.7960833494     3.9928245027    -0.6357648642
Bq        -0.8152932560     4.1155710895    -0.1514465238
Bq        -0.8181622831     4.2370602389    -0.0791128851
Bq        -0.8104783205     4.1879616041    -0.2728402213
Bq        -0.8220042645     4.2616095562     0.0177507830
Bq        -0.8066363392     4.1634122867    -0.3697038894
Bq        -0.8258462458     4.2861588736     0.1146144511
Bq        -0.8027943578     4.1388629694    -0.4665675575
Bq        -0.8296882271     4.3107081910     0.2114781192
Bq        -0.7989523765     4.1143136520    -0.5634312255
Bq        -0.8335302085     4.3352575084     0.3083417873
Bq        -0.7951103952     4.0897643346    -0.6602948936
Bq        -0.8143203018     4.2125109215    -0.1759765532
Bq        -0.8171893289     4.3340000708    -0.1036429145
Bq        -0.8095053663     4.2849014360    -0.2973702507
Bq        -0.8210313103     4.3585493882    -0.0067792464
Bq        -0.8056633849     4.2603521187    -0.3942339188
Bq        -0.8248732916     4.3830987055     0.0900844217
Bq        -0.8018214036     4.2358028013    -0.4910975869
Bq        -0.8287152729     4.4076480229     0.1869480897
Bq        -0.7979794223     4.2112534839    -0.5879612550
Bq        -0.8325572542     4.4321973403     0.2838117578
Bq        -0.7941374409     4.1867041665    -0.6848249231
Bq        -0.8133473476     4.3094507534    -0.2005065826
Bq        -0.8162163747     4.4309399027    -0.1281729440
Bq        -0.8085324120     4.3818412680    -0.3219002801
Bq        -0.8200583560     4.4554892201    -0.0313092759
Bq        -0.8046904307     4.3572919506    -0.4187639482
Bq        -0.8239003374     4.4800385375     0.0655543922
Bq        -0.8008484494     4.3327426332    -0.5156276163
Bq        -0.8277423187     4.5045878549     0.1624180603
Bq        -0.7970064681     4.3081933159    -0.6124912844
Bq        -0.8315843000     4.5291371722     0.2592817284
Bq        -0.7931644867     4.2836439985    -0.7093549525
Bq        -0.8123743934     4.4063905854    -0.2250366120
Bq        -0.7649426541    -0.4160516942     1.1022917913
Bq        -0.7572586914    -0.4651503290     0.9085644551
Bq        -0.7687846354    -0.3915023768     1.1991554594
Bq        -0.7534167101    -0.4896996464     0.8117007870
Bq        -0.7726266167    -0.3669530595     1.2960191274
Bq        -0.7495747288    -0.5142489637     0.7148371189
Bq        -0.7764685981    -0.3424037421     1.3928827955
Bq        -0.7457327474    -0.5387982811     0.6179734508
Bq        -0.7803105794    -0.3178544247     1.4897464636
Bq        -0.7418907661    -0.5633475985     0.5211097827
Bq        -0.7611006728    -0.4406010116     1.0054281232
Bq        -0.7639696999    -0.3191118623     1.0777617618
Bq        -0.7562857372    -0.3682104970     0.8840344257
Bq        -0.7678116812    -0.2945625449     1.1746254299
Bq        -0.7524437559    -0.3927598144     0.7871707576
Bq        -0.7716536625    -0.2700132275     1.2714890980
Bq        -0.7486017745    -0.4173091318     0.6903070895
Bq        -0.7754956439    -0.2454639102     1.3683527661
Bq        -0.7447597932    -0.4418584492     0.5934434214
Bq        -0.7793376252    -0.2209145928     1.4652164342
Bq        -0.7409178119    -0.4664077665     0.4965797533
Bq        -0.7601277185    -0.3436611797     0.9808980937
Bq        -0.7629967456    -0.2221720303     1.0532317324
Bq        -0.7553127830    -0.2712706651     0.8595043962
Bq        -0.7668387270    -0.1976227130     1.1500954005
Bq        -0.7514708017    -0.2958199825     0.7626407281
Bq        -0.7706807083    -0.1730733956     1.2469590686
Bq        -0.7476288203    -0.3203692998     0.6657770601
Bq        -0.7745226896    -0.1485240782     1.3438227367
Bq        -0.7437868390    -0.3449186172     0.5689133920
Bq        -0.7783646710    -0.1239747608     1.4406864048
Bq        -0.7399448577    -0.3694679346     0.4720497239
Bq        -0.7591547643    -0.2467213477     0.9563680643
Bq        -0.7620237914    -0.1252321984     1.0287017030
Bq        -0.7543398288    -0.1743308332     0.8349743668
Bq        -0.7658657727    -0.1006828810     1.1255653711
Bq        -0.7504978474    -0.1988801505     0.7381106987
Bq        -0.7697077541    -0.0761335637     1.2224290392
Bq        -0.7466558661    -0.2234294679     0.6412470306
Bq        -0.7735497354    -0.0515842463     1.3192927073
Bq        -0.7428138848    -0.2479787853     0.5443833625
Bq        -0.7773917167    -0.0270349289     1.4161563753
Bq        -0.7389719034    -0.2725281027     0.4475196944
Bq        -0.7581818101    -0.1497815158     0.9318380349
Bq        -0.7610508372    -0.0282923665     1.0041716736
Bq        -0.7533668745    -0.0773910012     0.8104443374
Bq        -0.7648928185    -0.0037430491     1.1010353416

1
2
3
4
5
6
7
8
9
10
11
12
13
14
15
16
17
18
19
20
21
22
23
24
25
26
27
28
29
30
31
32
33
34
35
36
37
38
39
40
41
42
43
44
45
46
47
48
49
50
51
52
53
54
55
56
57
58
59
60
61
62
63
64
65
66
67
68
69
70
71
72
73
74
75
76
77
78
79
80
81
82
83
84
85
86
87
88
89
90
91
92
93
94
95
96
97
98
99
100
101
102
103
104
105
106
107
108
109
110
111
112
113
114
115
116
117
118
119
120
121
122
123
124
125
126
127
128
129
130
131
132
133
134
135
136
137
138
139
140
141
142
143
144
145
146
147
148
149
150
151
152
153
154
155
156
157
158
159
160
161
162
163
164
165
166
167
168
169
170
171
172
173
174
175
176
177
178
179
180
181
182
183
184
185
186
187
188
189
190
191
192
193
194
195
196
197
198
199
200
201
202
203
204
205
206
207
208
209
210
211
212
213
214
215
216
217
218
219
220
221
222
223
224
225
226
227
228
229
230
231
232
233
234
235
236

