%nproc=8
%mem=1000MB
# rb3lyp/6-311+g** NMR geom=connectivity

Title

0 1
C    -4.0500558   -0.5771862    0.8136712
H    -5.0263804   -1.0082727    1.0024760
C    -3.9381552    0.6617804    0.2400876
H    -4.8252424    1.2338890   -0.0111295
C    -2.6768410    1.2433246    0.0057578
C    -1.4974121    0.5051527    0.2848253
C    -1.6508332   -0.7338728    0.9404026
H    -0.7713646   -1.2730967    1.2633753
C    -2.8898548   -1.2624035    1.1994307
H    -2.9683706   -2.2124563    1.7152676
C    -2.5773185    2.5963696   -0.4192930
H    -3.4870728    3.1412239   -0.6474055
C    -1.3741895    3.2147896   -0.4364030
H    -1.2997315    4.2742019   -0.6578144
C    -0.1719488    2.4994090   -0.1734588
C    -0.2043917    1.1018437    0.0192689
C     1.0513491    3.2042560   -0.0676222
H     1.0427344    4.2819499   -0.1896997
C     2.1942091    2.5487446    0.2579577
H     3.1168527    3.0912848    0.4334727
C     2.2216473    1.1336562    0.2934990
C     1.0486931    0.3945528    0.0302412
C     3.4483363    0.4614633    0.5573939
H     4.3095794    1.0606054    0.8334846
C     3.5427346   -0.8855926    0.4749463
H     4.4731467   -1.3939704    0.7038822
C     2.4490052   -1.6474447   -0.0196319
C     1.2150704   -1.0057258   -0.3013573
C     0.2531113   -1.7434440   -1.0216591
H    -0.6541356   -1.2535051   -1.3462847
C     0.4494193   -3.0628597   -1.3413779
H    -0.3083162   -3.5944309   -1.9054060
C     1.6251726   -3.7207967   -0.9552541
H     1.7670048   -4.7687404   -1.1927019
C     2.6109872   -3.0144177   -0.3183050
H     3.5525612   -3.4902813   -0.0646367
Bq         0.5749997083     4.4800385375     0.1210400863
Bq         0.5980515963     4.3327426332    -0.4601419222
Bq         0.5711577270     4.5045878549     0.2179037544
Bq         0.6018935776     4.3081933159    -0.5570055903
Bq         0.5673157456     4.5291371722     0.3147674225
Bq         0.6057355589     4.2836439985    -0.6538692584
Bq         0.5865256523     4.4063905854    -0.1695509179
Bq         0.6339573916    -0.4160516942     1.1577774854
Bq         0.6416413542    -0.4651503290     0.9640501492
Bq         0.6301154102    -0.3915023768     1.2546411535
Bq         0.6454833356    -0.4896996464     0.8671864811
Bq         0.6262734289    -0.3669530595     1.3515048215
Bq         0.6493253169    -0.5142489637     0.7703228130
Bq         0.6224314476    -0.3424037421     1.4483684896
Bq         0.6531672982    -0.5387982811     0.6734591449
Bq         0.6185894663    -0.3178544247     1.5452321577
Bq         0.6570092795    -0.5633475985     0.5765954768
Bq         0.6377993729    -0.4406010116     1.0609138173
Bq         0.6349303458    -0.3191118623     1.1332474559
Bq         0.6426143085    -0.3682104970     0.9395201198
Bq         0.6310883645    -0.2945625449     1.2301111240
Bq         0.6464562898    -0.3927598144     0.8426564517
Bq         0.6272463831    -0.2700132275     1.3269747921
Bq         0.6502982711    -0.4173091318     0.7457927836
Bq         0.6234044018    -0.2454639102     1.4238384602
Bq         0.6541402524    -0.4418584492     0.6489291155
Bq         0.6195624205    -0.2209145928     1.5207021283
Bq         0.6579822338    -0.4664077665     0.5520654474
Bq         0.6387723271    -0.3436611797     1.0363837878
Bq         0.6359033000    -0.2221720303     1.1087174265
Bq         0.6435872627    -0.2712706651     0.9149900903
Bq         0.6320613187    -0.1976227130     1.2055810946
Bq         0.6474292440    -0.2958199825     0.8181264222
Bq         0.6282193374    -0.1730733956     1.3024447627
Bq         0.6512712253    -0.3203692998     0.7212627541
Bq         0.6243773560    -0.1485240782     1.3993084308
Bq         0.6551132067    -0.3449186172     0.6243990861
Bq         0.6205353747    -0.1239747608     1.4961720989
Bq         0.6589551880    -0.3694679346     0.5275354180
Bq         0.6397452814    -0.2467213477     1.0118537584
Bq         0.6368762542    -0.1252321984     1.0841873971
Bq         0.6445602169    -0.1743308332     0.8904600609
Bq         0.6330342729    -0.1006828810     1.1810510652
Bq         0.6484021982    -0.1988801505     0.7935963928
Bq         0.6291922916    -0.0761335637     1.2779147333
Bq         0.6522441796    -0.2234294679     0.6967327247
Bq         0.6253503103    -0.0515842463     1.3747784014
Bq         0.6560861609    -0.2479787853     0.5998690566
Bq         0.6215083289    -0.0270349289     1.4716420694
Bq         0.6599281422    -0.2725281027     0.5030053885
Bq         0.6407182356    -0.1497815158     0.9873237290
Bq         0.6378492085    -0.0282923665     1.0596573677
Bq         0.6455331711    -0.0773910012     0.8659300315
Bq         0.6340072271    -0.0037430491     1.1565210357
Bq         0.6493751525    -0.1019403186     0.7690663634
Bq         0.6301652458     0.0208062683     1.2533847038
Bq         0.6532171338    -0.1264896360     0.6722026953
Bq         0.6263232645     0.0453555857     1.3502483719
Bq         0.6570591151    -0.1510389533     0.5753390272
Bq         0.6224812832     0.0699049030     1.4471120400
Bq         0.6609010964    -0.1755882707     0.4784753591
Bq         0.6416911898    -0.0528416838     0.9627936996
Bq         0.6388221627     0.0686474655     1.0351273382
Bq         0.6465061254     0.0195488307     0.8414000020
Bq         0.6349801814     0.0931967828     1.1319910063
Bq         0.6503481067    -0.0050004867     0.7445363340
Bq         0.6311382000     0.1177461002     1.2288546744
Bq         0.6541900880    -0.0295498040     0.6476726659
Bq         0.6272962187     0.1422954176     1.3257183425
Bq         0.6580320693    -0.0540991214     0.5508089978
Bq         0.6234542374     0.1668447350     1.4225820106
Bq         0.6618740507    -0.0786484388     0.4539453297
Bq         0.6426641440     0.0440981481     0.9382636701
Bq         0.6397951169     0.1655872974     1.0105973088
Bq         0.6474790796     0.1164886627     0.8168699726
Bq         0.6359531356     0.1901366148     1.1074609769
Bq         0.6513210609     0.0919393453     0.7200063045
Bq         0.6321111543     0.2146859322     1.2043246450
Bq         0.6551630422     0.0673900279     0.6231426364
Bq         0.6282691729     0.2392352495     1.3011883131
Bq         0.6590050236     0.0428407105     0.5262789684
Bq         0.6244271916     0.2637845669     1.3980519812
Bq         0.6628470049     0.0182913932     0.4294153003
Bq         0.6436370982     0.1410379800     0.9137336407
Bq         0.6407680711     0.2625271294     0.9860672794
Bq         0.6484520338     0.2134284946     0.7923399432
Bq         0.6369260898     0.2870764467     1.0829309475
Bq         0.6522940151     0.1888791772     0.6954762751
Bq         0.6330841085     0.3116257641     1.1797946156
Bq         0.6561359965     0.1643298598     0.5986126070
Bq         0.6292421272     0.3361750815     1.2766582836
Bq         0.6599779778     0.1397805425     0.5017489389
Bq         0.6254001458     0.3607243989     1.3735219517
Bq         0.6638199591     0.1152312251     0.4048852708
Bq         0.6446100525     0.2379778120     0.8892036113
Bq         0.6417410254     0.3594669613     0.9615372499
Bq         0.6494249880     0.3103683265     0.7678099138
Bq         0.6378990440     0.3840162787     1.0584009180
Bq         0.6532669694     0.2858190092     0.6709462457
Bq         0.6340570627     0.4085655960     1.1552645861
Bq         0.6571089507     0.2612696918     0.5740825776
Bq         0.6302150814     0.4331149134     1.2521282542
Bq         0.6609509320     0.2367203744     0.4772189095
Bq         0.6263731001     0.4576642308     1.3489919223
Bq         0.6647929133     0.2121710570     0.3803552414
Bq         0.6455830067     0.3349176439     0.8646735819
Bq         0.6427139796     0.4564067932     0.9370072205
Bq         0.6503979423     0.4073081585     0.7432798843
Bq         0.6388719983     0.4809561106     1.0338708886
Bq         0.6542399236     0.3827588411     0.6464162162
Bq         0.6350300169     0.5055054280     1.1307345567
Bq         0.6580819049     0.3582095237     0.5495525482
Bq         0.6311880356     0.5300547454     1.2275982248
Bq         0.6619238862     0.3336602064     0.4526888801
Bq         0.6273460543     0.5546040627     1.3244618929
Bq         0.6657658676     0.3091108890     0.3558252120
Bq         0.6465559609     0.4318574759     0.8401435524
Bq         0.6436869338     0.5533466252     0.9124771911
Bq         0.6513708965     0.5042479904     0.7187498549
Bq         0.6398449525     0.5778959425     1.0093408592
Bq         0.6552128778     0.4796986730     0.6218861868
Bq         0.6360029712     0.6024452599     1.1062045273
Bq         0.6590548591     0.4551493557     0.5250225187
Bq         0.6321609898     0.6269945773     1.2030681954
Bq         0.6628968405     0.4306000383     0.4281588506
Bq         0.6283190085     0.6515438947     1.2999318635
Bq         0.6667388218     0.4060507209     0.3312951826
Bq         0.6475289151     0.5287973078     0.8156135230
Bq         0.6446598880     0.6502864571     0.8879471617
Bq         0.6523438507     0.6011878224     0.6942198255
Bq         0.6408179067     0.6748357745     0.9848108298
Bq         0.6561858320     0.5766385050     0.5973561574
Bq         0.6369759254     0.6993850919     1.0816744978
Bq         0.6600278134     0.5520891876     0.5004924893
Bq         0.6331339441     0.7239344092     1.1785381659
Bq         0.6638697947     0.5275398702     0.4036288212
Bq         0.6292919627     0.7484837266     1.2754018340
Bq         0.6677117760     0.5029905529     0.3067651531
Bq         0.6485018694     0.6257371397     0.7910834936
Bq         0.6456328423     0.7472262890     0.8634171322
Bq         0.6533168049     0.6981276543     0.6696897961
Bq         0.6417908609     0.7717756064     0.9602808003
Bq         0.6571587863     0.6735783369     0.5728261280
Bq         0.6379488796     0.7963249238     1.0571444684
Bq         0.6610007676     0.6490290195     0.4759624599
Bq         0.6341068983     0.8208742412     1.1540081365
Bq         0.6648427489     0.6244797022     0.3790987918
Bq         0.6302649169     0.8454235585     1.2508718046
Bq         0.6686847302     0.5999303848     0.2822351237
Bq         0.6494748236     0.7226769717     0.7665534641
Bq         0.6466057965     0.8441661210     0.8388871028
Bq         0.6542897591     0.7950674862     0.6451597666
Bq         0.6427638152     0.8687154384     0.9357507709
Bq         0.6581317405     0.7705181689     0.5482960985
Bq         0.6389218338     0.8932647557     1.0326144390
Bq         0.6619737218     0.7459688515     0.4514324305
Bq         0.6350798525     0.9178140731     1.1294781071
Bq         0.6658157031     0.7214195341     0.3545687624
Bq         0.6312378712     0.9423633905     1.2263417752
Bq         0.6696576845     0.6968702167     0.2577050943
Bq         0.6504477778     0.8196168036     0.7420234347
Bq         0.6475787507     0.9411059529     0.8143570734
Bq         0.6552627134     0.8920073182     0.6206297372
Bq         0.6437367694     0.9656552703     0.9112207415
Bq         0.6591046947     0.8674580008     0.5237660691
Bq         0.6398947881     0.9902045877     1.0080844096
Bq         0.6629466760     0.8429086834     0.4269024010
Bq         0.6360528067     1.0147539051     1.1049480777
Bq         0.6667886574     0.8183593660     0.3300387329
Bq         0.6322108254     1.0393032224     1.2018117457
Bq         0.6706306387     0.7938100487     0.2331750648
Bq         0.6514207320     0.9165566355     0.7174934053
Bq         0.6485517049     1.0380457849     0.7898270440
Bq         0.6562356676     0.9889471501     0.5960997078
Bq         0.6447097236     1.0625951022     0.8866907120
Bq         0.6600776489     0.9643978327     0.4992360397
Bq         0.6408677423     1.0871444196     0.9835543801
Bq         0.6639196303     0.9398485154     0.4023723716
Bq         0.6370257610     1.1116937370     1.0804180482
Bq         0.6677616116     0.9152991980     0.3055087035
Bq         0.6331837796     1.1362430544     1.1772817163
Bq         0.6716035929     0.8907498806     0.2086450354
Bq         0.6523936863     1.0134964675     0.6929633759
Bq         0.6495246592     1.1349856168     0.7652970145
Bq         0.6572086218     1.0858869821     0.5715696783
Bq         0.6456826778     1.1595349342     0.8621606826
Bq         0.6610506032     1.0613376647     0.4747060103
Bq         0.6418406965     1.1840842516     0.9590243507
Bq         0.6648925845     1.0367883473     0.3778423422
Bq         0.6379987152     1.2086335689     1.0558880188
Bq         0.6687345658     1.0122390299     0.2809786741
Bq         0.6341567338     1.2331828863     1.1527516869
Bq         0.6725765471     0.9876897125     0.1841150060
Bq         0.6533666405     1.1104362994     0.6684333464
Bq         0.6504976134     1.2319254487     0.7407669851
Bq         0.6581815760     1.1828268140     0.5470396489
Bq         0.6466556321     1.2564747661     0.8376306532
Bq         0.6620235574     1.1582774966     0.4501759808
Bq         0.6428136507     1.2810240835     0.9344943213
Bq         0.6658655387     1.1337281792     0.3533123127

1
2
3
4
5
6
7
8
9
10
11
12
13
14
15
16
17
18
19
20
21
22
23
24
25
26
27
28
29
30
31
32
33
34
35
36
37
38
39
40
41
42
43
44
45
46
47
48
49
50
51
52
53
54
55
56
57
58
59
60
61
62
63
64
65
66
67
68
69
70
71
72
73
74
75
76
77
78
79
80
81
82
83
84
85
86
87
88
89
90
91
92
93
94
95
96
97
98
99
100
101
102
103
104
105
106
107
108
109
110
111
112
113
114
115
116
117
118
119
120
121
122
123
124
125
126
127
128
129
130
131
132
133
134
135
136
137
138
139
140
141
142
143
144
145
146
147
148
149
150
151
152
153
154
155
156
157
158
159
160
161
162
163
164
165
166
167
168
169
170
171
172
173
174
175
176
177
178
179
180
181
182
183
184
185
186
187
188
189
190
191
192
193
194
195
196
197
198
199
200
201
202
203
204
205
206
207
208
209
210
211
212
213
214
215
216
217
218
219
220
221
222
223
224
225
226
227
228
229
230
231
232
233
234
235
236

