%nproc=8
%mem=1000MB
# rb3lyp/6-311+g** NMR geom=connectivity

Title

0 1
C    -4.0500558   -0.5771862    0.8136712
H    -5.0263804   -1.0082727    1.0024760
C    -3.9381552    0.6617804    0.2400876
H    -4.8252424    1.2338890   -0.0111295
C    -2.6768410    1.2433246    0.0057578
C    -1.4974121    0.5051527    0.2848253
C    -1.6508332   -0.7338728    0.9404026
H    -0.7713646   -1.2730967    1.2633753
C    -2.8898548   -1.2624035    1.1994307
H    -2.9683706   -2.2124563    1.7152676
C    -2.5773185    2.5963696   -0.4192930
H    -3.4870728    3.1412239   -0.6474055
C    -1.3741895    3.2147896   -0.4364030
H    -1.2997315    4.2742019   -0.6578144
C    -0.1719488    2.4994090   -0.1734588
C    -0.2043917    1.1018437    0.0192689
C     1.0513491    3.2042560   -0.0676222
H     1.0427344    4.2819499   -0.1896997
C     2.1942091    2.5487446    0.2579577
H     3.1168527    3.0912848    0.4334727
C     2.2216473    1.1336562    0.2934990
C     1.0486931    0.3945528    0.0302412
C     3.4483363    0.4614633    0.5573939
H     4.3095794    1.0606054    0.8334846
C     3.5427346   -0.8855926    0.4749463
H     4.4731467   -1.3939704    0.7038822
C     2.4490052   -1.6474447   -0.0196319
C     1.2150704   -1.0057258   -0.3013573
C     0.2531113   -1.7434440   -1.0216591
H    -0.6541356   -1.2535051   -1.3462847
C     0.4494193   -3.0628597   -1.3413779
H    -0.3083162   -3.5944309   -1.9054060
C     1.6251726   -3.7207967   -0.9552541
H     1.7670048   -4.7687404   -1.1927019
C     2.6109872   -3.0144177   -0.3183050
H     3.5525612   -3.4902813   -0.0646367
Bq         2.7533639199     0.8726998923     0.8754334618
Bq         2.6763273269     0.8300169152     1.1622147841
Bq         2.7790427842     0.8869275513     0.7798396877
Bq         2.6506484626     0.8157892562     1.2578085582
Bq         2.8047216485     0.9011552104     0.6842459136
Bq         2.6249695983     0.8015615972     1.3534023323
Bq         2.8304005129     0.9153828694     0.5886521395
Bq         2.5992907340     0.7873339381     1.4489961064
Bq         2.8560793772     0.9296105284     0.4930583654
Bq         2.7276850556     0.8584722333     0.9710272359
Bq         2.6983151407     0.9432272683     1.0803615496
Bq         2.7496728694     0.9716825864     0.8891740014
Bq         2.6726362764     0.9289996093     1.1759553237
Bq         2.7753517337     0.9859102454     0.7935802273
Bq         2.6469574121     0.9147719502     1.2715490978
Bq         2.8010305980     1.0001379044     0.6979864532
Bq         2.6212785477     0.9005442912     1.3671428719
Bq         2.8267094623     1.0143655634     0.6023926791
Bq         2.5955996834     0.8863166322     1.4627366459
Bq         2.8523883267     1.0285932225     0.5067989050
Bq         2.7239940050     0.9574549273     0.9847677755
Bq         2.6946240902     1.0422099623     1.0941020891
Bq         2.7459818188     1.0706652804     0.9029145409
Bq         2.6689452259     1.0279823033     1.1896958632
Bq         2.7716606831     1.0848929394     0.8073207668
Bq         2.6432663615     1.0137546443     1.2852896373
Bq         2.7973395475     1.0991205984     0.7117269927
Bq         2.6175874972     0.9995269852     1.3808834114
Bq         2.8230184118     1.1133482575     0.6161332187
Bq         2.5919086329     0.9852993262     1.4764771855
Bq         2.8486972761     1.1275759165     0.5205394446
Bq         2.7203029545     1.0564376214     0.9985083150
Bq         2.6909330396     1.1411926564     1.1078426287
Bq         2.7422907683     1.1696479744     0.9166550805
Bq         2.6652541753     1.1269649973     1.2034364028
Bq         2.7679696326     1.1838756335     0.8210613064
Bq         2.6395753110     1.1127373383     1.2990301769
Bq         2.7936484969     1.1981032925     0.7254675323
Bq         2.6138964467     1.0985096793     1.3946239510
Bq         2.8193273613     1.2123309515     0.6298737582
Bq         2.5882175824     1.0842820203     1.4902177251
Bq         2.8450062256     1.2265586105     0.5342799841
Bq         2.7166119040     1.1554203154     1.0122488546
Bq         2.6872419891     1.2401753504     1.1215831682
Bq         2.7385997178     1.2686306685     0.9303956201
Bq         2.6615631248     1.2259476914     1.2171769423
Bq         2.7642785821     1.2828583275     0.8348018460
Bq         2.6358842605     1.2117200323     1.3127707164
Bq         2.7899574464     1.2970859865     0.7392080719
Bq         2.6102053961     1.1974923733     1.4083644905
Bq         2.8156363107     1.3113136455     0.6436142978
Bq         2.5845265318     1.1832647143     1.5039582646
Bq         2.8413151750     1.3255413046     0.5480205237
Bq         2.7129208534     1.2544030094     1.0259893941
Bq         2.6835509386     1.3391580444     1.1353237078
Bq         2.7349086672     1.3676133625     0.9441361596
Bq         2.6578720743     1.3249303854     1.2309174819
Bq         2.7605875315     1.3818410215     0.8485423855
Bq         2.6321932099     1.3107027264     1.3265112560
Bq         2.7862663959     1.3960686806     0.7529486114
Bq         2.6065143456     1.2964750674     1.4221050301
Bq         2.8119452602     1.4102963396     0.6573548373
Bq         2.5808354813     1.2822474083     1.5176988042
Bq         2.8376241245     1.4245239986     0.5617610632
Bq         2.7092298029     1.3533857035     1.0397299337
Bq         2.6798598880     1.4381407385     1.1490642474
Bq         2.7312176167     1.4665960565     0.9578766992
Bq         2.6541810237     1.4239130794     1.2446580215
Bq         2.7568964810     1.4808237156     0.8622829251
Bq         2.6285021594     1.4096854204     1.3402517956
Bq         2.7825753453     1.4950513746     0.7666891510
Bq         2.6028232951     1.3954577614     1.4358455696
Bq         2.8082542097     1.5092790336     0.6710953769
Bq         2.5771444308     1.3812301024     1.5314393437
Bq         2.8339330740     1.5235066926     0.5755016028
Bq         2.7055387524     1.4523683975     1.0534704733
Bq         2.6761688375     1.5371234325     1.1628047869
Bq         2.7275265662     1.5655787506     0.9716172387
Bq         2.6504899732     1.5228957735     1.2583985610
Bq         2.7532054305     1.5798064096     0.8760234646
Bq         2.6248111089     1.5086681145     1.3539923351
Bq         2.7788842948     1.5940340686     0.7804296905
Bq         2.5991322445     1.4944404554     1.4495861092
Bq         2.8045631591     1.6082617277     0.6848359164
Bq         2.5734533802     1.4802127964     1.5451798833
Bq         2.8302420234     1.6224893867     0.5892421424
Bq         2.7018477018     1.5513510915     1.0672110128
Bq         2.6724777870     1.6361061265     1.1765453265
Bq         2.7238355156     1.6645614446     0.9853577783
Bq         2.6467989226     1.6218784675     1.2721391006
Bq         2.7495143799     1.6787891036     0.8897640042
Bq         2.6211200583     1.6076508085     1.3677328747
Bq         2.7751932443     1.6930167627     0.7941702301
Bq         2.5954411940     1.5934231495     1.4633266488
Bq         2.8008721086     1.7072444217     0.6985764560
Bq         2.5697623297     1.5791954904     1.5589204229
Bq         2.8265509729     1.7214720807     0.6029826819
Bq         2.6981566513     1.6503337856     1.0809515524
Bq         2.6687867364     1.7350888206     1.1902858660
Bq         2.7201444651     1.7635441386     0.9990983178
Bq         2.6431078721     1.7208611616     1.2858796401
Bq         2.7458233294     1.7777717977     0.9035045438
Bq         2.6174290078     1.7066335025     1.3814734142
Bq         2.7715021937     1.7919994567     0.8079107697
Bq         2.5917501435     1.6924058435     1.4770671883
Bq         2.7971810580     1.8062271157     0.7123169956
Bq         2.5660712791     1.6781781845     1.5726609624
Bq         2.8228599224     1.8204547748     0.6167232215
Bq         2.6944656008     1.7493164796     1.0946920919
Bq         2.6650956859     1.8340715146     1.2040264056
Bq         2.7164534145     1.8625268327     1.0128388574
Bq         2.6394168216     1.8198438556     1.2996201797
Bq         2.7421322789     1.8767544917     0.9172450833
Bq         2.6137379573     1.8056161966     1.3952139538
Bq         2.7678111432     1.8909821507     0.8216513092
Bq         2.5880590929     1.7913885375     1.4908077279
Bq         2.7934900075     1.9052098098     0.7260575351
Bq         2.5623802286     1.7771608785     1.5864015020
Bq         2.8191688718     1.9194374688     0.6304637610
Bq         2.6907745502     1.8482991736     1.1084326315
Bq         2.6614046354     1.9330542087     1.2177669452
Bq         2.7127623640     1.9615095267     1.0265793970
Bq         2.6357257710     1.9188265496     1.3133607193
Bq         2.7384412283     1.9757371857     0.9309856229
Bq         2.6100469067     1.9045988906     1.4089544933
Bq         2.7641200927     1.9899648448     0.8353918488
Bq         2.5843680424     1.8903712316     1.5045482674
Bq         2.7897989570     2.0041925038     0.7397980747
Bq         2.5586891781     1.8761435725     1.6001420415
Bq         2.8154778213     2.0184201628     0.6442043006
Bq         2.6870834997     1.9472818677     1.1221731711
Bq         2.6577135848     2.0320369027     1.2315074847
Bq         2.7090713135     2.0604922207     1.0403199365
Bq         2.6320347205     2.0178092437     1.3271012588
Bq         2.7347501778     2.0747198798     0.9447261624
Bq         2.6063558562     2.0035815846     1.4226950329
Bq         2.7604290421     2.0889475388     0.8491323883
Bq         2.5806769919     1.9893539256     1.5182888070
Bq         2.7861079064     2.1031751978     0.7535386142
Bq         2.5549981275     1.9751262666     1.6138825811
Bq         2.8117867708     2.1174028569     0.6579448401
Bq         2.6833924492     2.0462645617     1.1359137106
Bq         2.6540225343     2.1310195967     1.2452480243
Bq         2.7053802629     2.1594749148     1.0540604761
Bq         2.6283436700     2.1167919377     1.3408417984
Bq         2.7310591273     2.1737025738     0.9584667020
Bq         2.6026648056     2.1025642787     1.4364355725
Bq         2.7567379916     2.1879302328     0.8628729279
Bq         2.5769859413     2.0883366196     1.5320293466
Bq         2.7824168559     2.2021578919     0.7672791538
Bq         2.5513070770     2.0741089606     1.6276231207
Bq         2.8080957202     2.2163855509     0.6716853797
Bq         2.6797013986     2.1452472558     1.1496542502
Bq         2.9351513111    -2.8181151051     0.5841638281
Bq         2.9865090398    -2.7896597870     0.3929762799
Bq         2.9094724468    -2.8323427641     0.6797576022
Bq         3.0121879041    -2.7754321280     0.2973825058
Bq         2.8837935825    -2.8465704231     0.7753513763
Bq         3.0378667684    -2.7612044690     0.2017887317
Bq         2.8581147181    -2.8607980821     0.8709451504
Bq         3.0635456327    -2.7469768099     0.1061949576
Bq         2.8324358538    -2.8750257412     0.9665389245
Bq         3.0892244970    -2.7327491509     0.0106011836
Bq         2.9608301754    -2.8038874460     0.4885700540
Bq         2.9314602606    -2.7191324110     0.5979043677
Bq         2.9828179892    -2.6906770930     0.4067168195
Bq         2.9057813963    -2.7333600701     0.6934981418
Bq         3.0084968535    -2.6764494339     0.3111230454
Bq         2.8801025319    -2.7475877291     0.7890919159
Bq         3.0341757179    -2.6622217749     0.2155292713
Bq         2.8544236676    -2.7618153881     0.8846856900
Bq         3.0598545822    -2.6479941159     0.1199354972
Bq         2.8287448033    -2.7760430471     0.9802794641
Bq         3.0855334465    -2.6337664569     0.0243417231
Bq         2.9571391249    -2.7049047520     0.5023105936
Bq         2.9277692100    -2.6201497170     0.6116449072
Bq         2.9791269387    -2.5916943989     0.4204573590
Bq         2.9020903457    -2.6343773760     0.7072386813
Bq         3.0048058030    -2.5774667399     0.3248635850
Bq         2.8764114814    -2.6486050350     0.8028324554
Bq         3.0304846673    -2.5632390809     0.2292698109
Bq         2.8507326171    -2.6628326941     0.8984262295
Bq         3.0561635317    -2.5490114219     0.1336760368
Bq         2.8250537527    -2.6770603531     0.9940200036
Bq         3.0818423960    -2.5347837628     0.0380822627
Bq         2.9534480744    -2.6059220580     0.5160511331
Bq         2.9240781595    -2.5211670230     0.6253854468
Bq         2.9754358881    -2.4927117049     0.4341978986
Bq         2.8983992952    -2.5353946820     0.7209792209
Bq         3.0011147525    -2.4784840459     0.3386041245
Bq         2.8727204309    -2.5496223410     0.8165729950
Bq         3.0267936168    -2.4642563868     0.2430103504
Bq         2.8470415665    -2.5638500000     0.9121667691
Bq         3.0524724811    -2.4500287278     0.1474165763
Bq         2.8213627022    -2.5780776591     1.0077605432
Bq         3.0781513454    -2.4358010688     0.0518228022
Bq         2.9497570238    -2.5069393639     0.5297916727
Bq         2.9203871090    -2.4221843289     0.6391259864
Bq         2.9717448376    -2.3937290109     0.4479384382
Bq         2.8947082446    -2.4364119879     0.7347197604

1
2
3
4
5
6
7
8
9
10
11
12
13
14
15
16
17
18
19
20
21
22
23
24
25
26
27
28
29
30
31
32
33
34
35
36
37
38
39
40
41
42
43
44
45
46
47
48
49
50
51
52
53
54
55
56
57
58
59
60
61
62
63
64
65
66
67
68
69
70
71
72
73
74
75
76
77
78
79
80
81
82
83
84
85
86
87
88
89
90
91
92
93
94
95
96
97
98
99
100
101
102
103
104
105
106
107
108
109
110
111
112
113
114
115
116
117
118
119
120
121
122
123
124
125
126
127
128
129
130
131
132
133
134
135
136
137
138
139
140
141
142
143
144
145
146
147
148
149
150
151
152
153
154
155
156
157
158
159
160
161
162
163
164
165
166
167
168
169
170
171
172
173
174
175
176
177
178
179
180
181
182
183
184
185
186
187
188
189
190
191
192
193
194
195
196
197
198
199
200
201
202
203
204
205
206
207
208
209
210
211
212
213
214
215
216
217
218
219
220
221
222
223
224
225
226
227
228
229
230
231
232
233
234
235
236

