%nproc=8
%mem=1000MB
# rb3lyp/6-311+g** NMR geom=connectivity

Title

0 1
C    -4.0500558   -0.5771862    0.8136712
H    -5.0263804   -1.0082727    1.0024760
C    -3.9381552    0.6617804    0.2400876
H    -4.8252424    1.2338890   -0.0111295
C    -2.6768410    1.2433246    0.0057578
C    -1.4974121    0.5051527    0.2848253
C    -1.6508332   -0.7338728    0.9404026
H    -0.7713646   -1.2730967    1.2633753
C    -2.8898548   -1.2624035    1.1994307
H    -2.9683706   -2.2124563    1.7152676
C    -2.5773185    2.5963696   -0.4192930
H    -3.4870728    3.1412239   -0.6474055
C    -1.3741895    3.2147896   -0.4364030
H    -1.2997315    4.2742019   -0.6578144
C    -0.1719488    2.4994090   -0.1734588
C    -0.2043917    1.1018437    0.0192689
C     1.0513491    3.2042560   -0.0676222
H     1.0427344    4.2819499   -0.1896997
C     2.1942091    2.5487446    0.2579577
H     3.1168527    3.0912848    0.4334727
C     2.2216473    1.1336562    0.2934990
C     1.0486931    0.3945528    0.0302412
C     3.4483363    0.4614633    0.5573939
H     4.3095794    1.0606054    0.8334846
C     3.5427346   -0.8855926    0.4749463
H     4.4731467   -1.3939704    0.7038822
C     2.4490052   -1.6474447   -0.0196319
C     1.2150704   -1.0057258   -0.3013573
C     0.2531113   -1.7434440   -1.0216591
H    -0.6541356   -1.2535051   -1.3462847
C     0.4494193   -3.0628597   -1.3413779
H    -0.3083162   -3.5944309   -1.9054060
C     1.6251726   -3.7207967   -0.9552541
H     1.7670048   -4.7687404   -1.1927019
C     2.6109872   -3.0144177   -0.3183050
H     3.5525612   -3.4902813   -0.0646367
Bq         0.3875560717     3.6787131270    -0.1994945759
Bq         0.3683461651     3.8014597139     0.2848237646
Bq         0.3913980530     3.6541638097    -0.2963582440
Bq         0.3645041837     3.8260090313     0.3816874327
Bq         0.3952400344     3.6296144923    -0.3932219120
Bq         0.3606622024     3.8505583487     0.4785511008
Bq         0.3990820157     3.6050651749    -0.4900855801
Bq         0.3798721091     3.7278117618    -0.0057672397
Bq         0.3770030819     3.8493009111     0.0665663990
Bq         0.3846870446     3.8002022763    -0.1271609372
Bq         0.3731611006     3.8738502285     0.1634300671
Bq         0.3885290259     3.7756529590    -0.2240246053
Bq         0.3693191193     3.8983995458     0.2602937352
Bq         0.3923710073     3.7511036416    -0.3208882734
Bq         0.3654771380     3.9229488632     0.3571574032
Bq         0.3962129886     3.7265543242    -0.4177519415
Bq         0.3616351566     3.9474981806     0.4540210713
Bq         0.4000549699     3.7020050068    -0.5146156096
Bq         0.3808450633     3.8247515937    -0.0302972691
Bq         0.3779760362     3.9462407430     0.0420363696
Bq         0.3856599988     3.8971421083    -0.1516909666
Bq         0.3741340548     3.9707900604     0.1389000376
Bq         0.3895019802     3.8725927909    -0.2485546347
Bq         0.3702920735     3.9953393778     0.2357637057
Bq         0.3933439615     3.8480434735    -0.3454183028
Bq         0.3664500922     4.0198886952     0.3326273738
Bq         0.3971859428     3.8234941562    -0.4422819709
Bq         0.3626081109     4.0444380125     0.4294910419
Bq         0.4010279241     3.7989448388    -0.5391456390
Bq         0.3818180175     3.9216914257    -0.0548272985
Bq         0.3789489904     4.0431805750     0.0175063401
Bq         0.3866329531     3.9940819402    -0.1762209961
Bq         0.3751070091     4.0677298924     0.1143700082
Bq         0.3904749344     3.9695326228    -0.2730846641
Bq         0.3712650277     4.0922792097     0.2112336763
Bq         0.3943169157     3.9449833055    -0.3699483322
Bq         0.3674230464     4.1168285271     0.3080973444
Bq         0.3981588970     3.9204339881    -0.4668120003
Bq         0.3635810651     4.1413778445     0.4049610125
Bq         0.4020008784     3.8958846707    -0.5636756684
Bq         0.3827909717     4.0186312576    -0.0793573280
Bq         0.3799219446     4.1401204069    -0.0070236893
Bq         0.3876059073     4.0910217722    -0.2007510255
Bq         0.3760799633     4.1646697243     0.0898399788
Bq         0.3914478886     4.0664724548    -0.2976146936
Bq         0.3722379820     4.1892190417     0.1867036469
Bq         0.3952898699     4.0419231374    -0.3944783617
Bq         0.3683960006     4.2137683590     0.2835673150
Bq         0.3991318513     4.0173738200    -0.4913420298
Bq         0.3645540193     4.2383176764     0.3804309831
Bq         0.4029738326     3.9928245027    -0.5882056978
Bq         0.3837639260     4.1155710895    -0.1038873574
Bq         0.3808948988     4.2370602389    -0.0315537187
Bq         0.3885788615     4.1879616041    -0.2252810549
Bq         0.3770529175     4.2616095562     0.0653099494
Bq         0.3924208428     4.1634122867    -0.3221447230
Bq         0.3732109362     4.2861588736     0.1621736174
Bq         0.3962628242     4.1388629694    -0.4190083911
Bq         0.3693689549     4.3107081910     0.2590372855
Bq         0.4001048055     4.1143136520    -0.5158720592
Bq         0.3655269735     4.3352575084     0.3559009536
Bq         0.4039467868     4.0897643346    -0.6127357273
Bq         0.3847368802     4.2125109215    -0.1284173868
Bq         0.3818678531     4.3340000708    -0.0560837482
Bq         0.3895518157     4.2849014360    -0.2498110843
Bq         0.3780258717     4.3585493882     0.0407799199
Bq         0.3933937971     4.2603521187    -0.3466747524
Bq         0.3741838904     4.3830987055     0.1376435880
Bq         0.3972357784     4.2358028013    -0.4435384205
Bq         0.3703419091     4.4076480229     0.2345072561
Bq         0.4010777597     4.2112534839    -0.5404020886
Bq         0.3664999278     4.4321973403     0.3313709242
Bq         0.4049197410     4.1867041665    -0.6372657567
Bq         0.3857098344     4.3094507534    -0.1529474162
Bq         0.3828408073     4.4309399027    -0.0806137776
Bq         0.3905247700     4.3818412680    -0.2743411138
Bq         0.3789988260     4.4554892201     0.0162498905
Bq         0.3943667513     4.3572919506    -0.3712047819
Bq         0.3751568446     4.4800385375     0.1131135586
Bq         0.3982087326     4.3327426332    -0.4680684499
Bq         0.3713148633     4.5045878549     0.2099772267
Bq         0.4020507139     4.3081933159    -0.5649321180
Bq         0.3674728820     4.5291371722     0.3068408948
Bq         0.4058926953     4.2836439985    -0.6617957861
Bq         0.3866827886     4.4063905854    -0.1774774457
Bq         0.4341145279    -0.4160516942     1.1498509576
Bq         0.4417984906    -0.4651503290     0.9561236215
Bq         0.4302725466    -0.3915023768     1.2467146257
Bq         0.4456404719    -0.4896996464     0.8592599534
Bq         0.4264305652    -0.3669530595     1.3435782938
Bq         0.4494824532    -0.5142489637     0.7623962853
Bq         0.4225885839    -0.3424037421     1.4404419619
Bq         0.4533244346    -0.5387982811     0.6655326172
Bq         0.4187466026    -0.3178544247     1.5373056300
Bq         0.4571664159    -0.5633475985     0.5686689491
Bq         0.4379565092    -0.4406010116     1.0529872895
Bq         0.4350874821    -0.3191118623     1.1253209282
Bq         0.4427714448    -0.3682104970     0.9315935920
Bq         0.4312455008    -0.2945625449     1.2221845963
Bq         0.4466134261    -0.3927598144     0.8347299239
Bq         0.4274035195    -0.2700132275     1.3190482644
Bq         0.4504554074    -0.4173091318     0.7378662558
Bq         0.4235615381    -0.2454639102     1.4159119325
Bq         0.4542973888    -0.4418584492     0.6410025878
Bq         0.4197195568    -0.2209145928     1.5127756006
Bq         0.4581393701    -0.4664077665     0.5441389197
Bq         0.4389294635    -0.3436611797     1.0284572601
Bq         0.4360604364    -0.2221720303     1.1007908988
Bq         0.4437443990    -0.2712706651     0.9070635626
Bq         0.4322184550    -0.1976227130     1.1976545669
Bq         0.4475863803    -0.2958199825     0.8101998945
Bq         0.4283764737    -0.1730733956     1.2945182350
Bq         0.4514283617    -0.3203692998     0.7133362264
Bq         0.4245344924    -0.1485240782     1.3913819031
Bq         0.4552703430    -0.3449186172     0.6164725583
Bq         0.4206925110    -0.1239747608     1.4882455711
Bq         0.4591123243    -0.3694679346     0.5196088902
Bq         0.4399024177    -0.2467213477     1.0039272307
Bq         0.4370333906    -0.1252321984     1.0762608694
Bq         0.4447173532    -0.1743308332     0.8825335332
Bq         0.4331914093    -0.1006828810     1.1731245374
Bq         0.4485593346    -0.1988801505     0.7856698651
Bq         0.4293494279    -0.0761335637     1.2699882055
Bq         0.4524013159    -0.2234294679     0.6888061970
Bq         0.4255074466    -0.0515842463     1.3668518736
Bq         0.4562432972    -0.2479787853     0.5919425289
Bq         0.4216654653    -0.0270349289     1.4637155417
Bq         0.4600852786    -0.2725281027     0.4950788608
Bq         0.4408753719    -0.1497815158     0.9793972013
Bq         0.4380063448    -0.0282923665     1.0517308399
Bq         0.4456903075    -0.0773910012     0.8580035037
Bq         0.4341643635    -0.0037430491     1.1485945080
Bq         0.4495322888    -0.1019403186     0.7611398357
Bq         0.4303223821     0.0208062683     1.2454581761
Bq         0.4533742701    -0.1264896360     0.6642761676
Bq         0.4264804008     0.0453555857     1.3423218442
Bq         0.4572162515    -0.1510389533     0.5674124995
Bq         0.4226384195     0.0699049030     1.4391855123
Bq         0.4610582328    -0.1755882707     0.4705488314
Bq         0.4418483261    -0.0528416838     0.9548671718
Bq         0.4389792990     0.0686474655     1.0272008105
Bq         0.4466632617     0.0195488307     0.8334734743
Bq         0.4351373177     0.0931967828     1.1240644786
Bq         0.4505052430    -0.0050004867     0.7366098062
Bq         0.4312953364     0.1177461002     1.2209281467
Bq         0.4543472243    -0.0295498040     0.6397461381
Bq         0.4274533550     0.1422954176     1.3177918148
Bq         0.4581892057    -0.0540991214     0.5428824700
Bq         0.4236113737     0.1668447350     1.4146554829
Bq         0.4620311870    -0.0786484388     0.4460188020
Bq         0.4428212804     0.0440981481     0.9303371424
Bq         0.4399522533     0.1655872974     1.0026707811
Bq         0.4476362159     0.1164886627     0.8089434449
Bq         0.4361102719     0.1901366148     1.0995344492
Bq         0.4514781972     0.0919393453     0.7120797768
Bq         0.4322682906     0.2146859322     1.1963981173
Bq         0.4553201786     0.0673900279     0.6152161087
Bq         0.4284263093     0.2392352495     1.2932617853
Bq         0.4591621599     0.0428407105     0.5183524406
Bq         0.4245843279     0.2637845669     1.3901254534
Bq         0.4630041412     0.0182913932     0.4214887725
Bq         0.4437942346     0.1410379800     0.9058071130
Bq         0.4409252075     0.2625271294     0.9781407516
Bq         0.4486091701     0.2134284946     0.7844134155
Bq         0.4370832261     0.2870764467     1.0750044197
Bq         0.4524511515     0.1888791772     0.6875497474
Bq         0.4332412448     0.3116257641     1.1718680878
Bq         0.4562931328     0.1643298598     0.5906860793
Bq         0.4293992635     0.3361750815     1.2687317559
Bq         0.4601351141     0.1397805425     0.4938224112
Bq         0.4255572822     0.3607243989     1.3655954240
Bq         0.4639770955     0.1152312251     0.3969587431
Bq         0.4447671888     0.2379778120     0.8812770836
Bq         0.4418981617     0.3594669613     0.9536107222
Bq         0.4495821244     0.3103683265     0.7598833860
Bq         0.4380561804     0.3840162787     1.0504743903
Bq         0.4534241057     0.2858190092     0.6630197179
Bq         0.4342141990     0.4085655960     1.1473380584
Bq         0.4572660870     0.2612696918     0.5661560499
Bq         0.4303722177     0.4331149134     1.2442017265
Bq         0.4611080683     0.2367203744     0.4692923818
Bq         0.4265302364     0.4576642308     1.3410653946
Bq         0.4649500497     0.2121710570     0.3724287137
Bq         0.4457401430     0.3349176439     0.8567470541
Bq         0.4428711159     0.4564067932     0.9290806928
Bq         0.4505550786     0.4073081585     0.7353533566
Bq         0.4390291346     0.4809561106     1.0259443609
Bq         0.4543970599     0.3827588411     0.6384896885
Bq         0.4351871533     0.5055054280     1.1228080290
Bq         0.4582390412     0.3582095237     0.5416260204
Bq         0.4313451719     0.5300547454     1.2196716971
Bq         0.4620810226     0.3336602064     0.4447623523
Bq         0.4275031906     0.5546040627     1.3165353652
Bq         0.4659230039     0.3091108890     0.3478986843
Bq         0.4467130973     0.4318574759     0.8322170247
Bq         0.4438440702     0.5533466252     0.9045506634
Bq         0.4515280328     0.5042479904     0.7108233272
Bq         0.4400020888     0.5778959425     1.0014143315
Bq         0.4553700141     0.4796986730     0.6139596591
Bq         0.4361601075     0.6024452599     1.0982779995

1
2
3
4
5
6
7
8
9
10
11
12
13
14
15
16
17
18
19
20
21
22
23
24
25
26
27
28
29
30
31
32
33
34
35
36
37
38
39
40
41
42
43
44
45
46
47
48
49
50
51
52
53
54
55
56
57
58
59
60
61
62
63
64
65
66
67
68
69
70
71
72
73
74
75
76
77
78
79
80
81
82
83
84
85
86
87
88
89
90
91
92
93
94
95
96
97
98
99
100
101
102
103
104
105
106
107
108
109
110
111
112
113
114
115
116
117
118
119
120
121
122
123
124
125
126
127
128
129
130
131
132
133
134
135
136
137
138
139
140
141
142
143
144
145
146
147
148
149
150
151
152
153
154
155
156
157
158
159
160
161
162
163
164
165
166
167
168
169
170
171
172
173
174
175
176
177
178
179
180
181
182
183
184
185
186
187
188
189
190
191
192
193
194
195
196
197
198
199
200
201
202
203
204
205
206
207
208
209
210
211
212
213
214
215
216
217
218
219
220
221
222
223
224
225
226
227
228
229
230
231
232
233
234
235
236

