%nproc=8
%mem=1000MB
# rb3lyp/6-311+g** NMR geom=connectivity

Title

0 1
C    -4.0500558   -0.5771862    0.8136712
H    -5.0263804   -1.0082727    1.0024760
C    -3.9381552    0.6617804    0.2400876
H    -4.8252424    1.2338890   -0.0111295
C    -2.6768410    1.2433246    0.0057578
C    -1.4974121    0.5051527    0.2848253
C    -1.6508332   -0.7338728    0.9404026
H    -0.7713646   -1.2730967    1.2633753
C    -2.8898548   -1.2624035    1.1994307
H    -2.9683706   -2.2124563    1.7152676
C    -2.5773185    2.5963696   -0.4192930
H    -3.4870728    3.1412239   -0.6474055
C    -1.3741895    3.2147896   -0.4364030
H    -1.2997315    4.2742019   -0.6578144
C    -0.1719488    2.4994090   -0.1734588
C    -0.2043917    1.1018437    0.0192689
C     1.0513491    3.2042560   -0.0676222
H     1.0427344    4.2819499   -0.1896997
C     2.1942091    2.5487446    0.2579577
H     3.1168527    3.0912848    0.4334727
C     2.2216473    1.1336562    0.2934990
C     1.0486931    0.3945528    0.0302412
C     3.4483363    0.4614633    0.5573939
H     4.3095794    1.0606054    0.8334846
C     3.5427346   -0.8855926    0.4749463
H     4.4731467   -1.3939704    0.7038822
C     2.4490052   -1.6474447   -0.0196319
C     1.2150704   -1.0057258   -0.3013573
C     0.2531113   -1.7434440   -1.0216591
H    -0.6541356   -1.2535051   -1.3462847
C     0.4494193   -3.0628597   -1.3413779
H    -0.3083162   -3.5944309   -1.9054060
C     1.6251726   -3.7207967   -0.9552541
H     1.7670048   -4.7687404   -1.1927019
C     2.6109872   -3.0144177   -0.3183050
H     3.5525612   -3.4902813   -0.0646367
Bq        -4.3828207272     0.5131075560     0.3135119174
Bq        -4.3845907051     0.7305211410     0.7637654018
Bq        -4.3847737684     0.8640552507     0.8103337177
Bq        -4.3840657772     0.7770898167     0.6302323239
Bq        -4.3851277639     0.9075379677     0.9003844145
Bq        -4.3837117816     0.7336070997     0.5401816270
Bq        -4.3854817595     0.9510206847     0.9904351114
Bq        -4.3833577861     0.6901243827     0.4501309301
Bq        -4.3858357551     0.9945034017     1.0804858083
Bq        -4.3830037905     0.6466416657     0.3600802332
Bq        -4.3861897507     1.0379861187     1.1705365052
Bq        -4.3826497949     0.6031589487     0.2700295364
Bq        -4.3844197728     0.8205725337     0.7202830208
Bq        -4.3846028361     0.9541066434     0.7668513366
Bq        -4.3838948449     0.8671412094     0.5867499429
Bq        -4.3849568317     0.9975893604     0.8569020335
Bq        -4.3835408494     0.8236584924     0.4966992460
Bq        -4.3853108272     1.0410720774     0.9469527304
Bq        -4.3831868538     0.7801757754     0.4066485491
Bq        -4.3856648228     1.0845547944     1.0370034273
Bq        -4.3828328582     0.7366930584     0.3165978522
Bq        -4.3860188184     1.1280375114     1.1270541242
Bq        -4.3824788626     0.6932103414     0.2265471553
Bq        -4.3842488405     0.9106239264     0.6768006397
Bq        -4.3844319038     1.0441580361     0.7233689556
Bq        -4.3837239127     0.9571926021     0.5432675618
Bq        -4.3847858994     1.0876407531     0.8134196525
Bq        -4.3833699171     0.9137098850     0.4532168649
Bq        -4.3851398950     1.1311234701     0.9034703494
Bq        -4.3830159215     0.8702271680     0.3631661681
Bq        -4.3854938905     1.1746061871     0.9935210462
Bq        -4.3826619259     0.8267444510     0.2731154712
Bq        -4.3858478861     1.2180889041     1.0835717431
Bq        -4.3823079304     0.7832617340     0.1830647743
Bq        -4.3840779082     1.0006753191     0.6333182587
Bq        -4.3842609715     1.1342094287     0.6798865746
Bq        -4.3835529804     1.0472439947     0.4997851808
Bq        -4.3846149671     1.1776921457     0.7699372714
Bq        -4.3831989848     1.0037612777     0.4097344839
Bq        -4.3849689627     1.2211748627     0.8599879683
Bq        -4.3828449892     0.9602785607     0.3196837870
Bq        -4.3853229583     1.2646575797     0.9500386652
Bq        -4.3824909937     0.9167958437     0.2296330901
Bq        -4.3856769538     1.3081402968     1.0400893621
Bq        -4.3821369981     0.8733131267     0.1395823933
Bq        -4.3839069760     1.0907267117     0.5898358777
Bq        -4.3840900393     1.2242608214     0.6364041935
Bq        -4.3833820481     1.1372953874     0.4563027998
Bq        -4.3844440348     1.2677435384     0.7264548904
Bq        -4.3830280525     1.0938126704     0.3662521029
Bq        -4.3847980304     1.3112262554     0.8165055873
Bq        -4.3826740570     1.0503299534     0.2762014060
Bq        -4.3851520260     1.3547089724     0.9065562842
Bq        -4.3823200614     1.0068472364     0.1861507091
Bq        -4.3855060216     1.3981916894     0.9966069811
Bq        -4.3819660658     0.9633645194     0.0961000122
Bq        -4.3837360437     1.1807781044     0.5463534966
Bq        -4.3839191070     1.3143122141     0.5929218125
Bq        -4.3832111158     1.2273467801     0.4128204187
Bq        -4.3842731026     1.3577949311     0.6829725094
Bq        -4.3828571203     1.1838640631     0.3227697218
Bq        -4.3846270981     1.4012776481     0.7730232063
Bq        -4.3825031247     1.1403813461     0.2327190250
Bq        -4.3849810937     1.4447603651     0.8630739031
Bq        -4.3821491291     1.0968986291     0.1426683281
Bq        -4.3853350893     1.4882430821     0.9531246000
Bq        -4.3817951335     1.0534159120     0.0526176312
Bq        -4.3835651114     1.2708294971     0.5028711156
Bq        -4.3837481747     1.4043636067     0.5494394315
Bq        -4.3830401836     1.3173981727     0.3693380377
Bq        -4.3841021703     1.4478463237     0.6394901283
Bq        -4.3826861880     1.2739154557     0.2792873408
Bq        -4.3844561659     1.4913290408     0.7295408252
Bq        -4.3823321924     1.2304327387     0.1892366439
Bq        -4.3848101614     1.5348117578     0.8195915221
Bq        -4.3819781968     1.1869500217     0.0991859471
Bq        -4.3851641570     1.5782944748     0.9096422190
Bq        -4.3816242013     1.1434673047     0.0091352502
Bq        -4.3833941791     1.3608808897     0.4593887346
Bq        -4.3835772424     1.4944149994     0.5059570504
Bq        -4.3828692513     1.4074495654     0.3258556567
Bq        -4.3839312380     1.5378977164     0.5960077473
Bq        -4.3825152557     1.3639668484     0.2358049598
Bq        -4.3842852336     1.5813804334     0.6860584442
Bq        -4.3821612601     1.3204841314     0.1457542629
Bq        -4.3846392292     1.6248631504     0.7761091411
Bq        -4.3818072646     1.2770014144     0.0557035660
Bq        -4.3849932247     1.6683458674     0.8661598380
Bq        -4.3814532690     1.2335186974    -0.0343471309
Bq        -4.3832232469     1.4509322824     0.4159063535
Bq        -4.3834063102     1.5844663921     0.4624746694
Bq        -4.3826983190     1.4975009581     0.2823732756
Bq        -4.3837603057     1.6279491091     0.5525253663
Bq        -4.3823443234     1.4540182411     0.1923225788
Bq        -4.3841143013     1.6714318261     0.6425760632
Bq        -4.3819903279     1.4105355241     0.1022718819
Bq        -4.3844682969     1.7149145431     0.7326267600
Bq        -4.3816363323     1.3670528071     0.0122211850
Bq        -4.3848222925     1.7583972601     0.8226774569
Bq        -4.3812823367     1.3235700901    -0.0778295119
Bq        -4.3830523146     1.5409836751     0.3724239725
Bq        -4.3832353779     1.6745177848     0.4189922884
Bq        -4.3825273867     1.5875523507     0.2388908946
Bq        -4.3835893735     1.7180005018     0.5090429852
Bq        -4.3821733912     1.5440696337     0.1488401977
Bq        -4.3839433690     1.7614832188     0.5990936821
Bq        -4.3818193956     1.5005869167     0.0587895008
Bq        -4.3842973646     1.8049659358     0.6891443790
Bq        -4.3814654000     1.4571041997    -0.0312611960
Bq        -4.3846513602     1.8484486528     0.7791950759
Bq        -4.3811114044     1.4136214827    -0.1213118929
Bq        -4.3828813823     1.6310350678     0.3289415915
Bq        -4.3830644456     1.7645691774     0.3755099073
Bq        -4.3823564545     1.6776037434     0.1954085136
Bq        -4.3834184412     1.8080518944     0.4655606042
Bq        -4.3820024589     1.6341210264     0.1053578167
Bq        -4.3837724368     1.8515346114     0.5556113011
Bq        -4.3816484633     1.5906383094     0.0153071198
Bq        -4.3841264323     1.8950173284     0.6456619980
Bq        -4.3812944677     1.5471555924    -0.0747435771
Bq        -4.3844804279     1.9385000454     0.7357126949
Bq        -4.3809404722     1.5036728754    -0.1647942740
Bq        -4.3827104500     1.7210864604     0.2854592105
Bq        -4.3828935133     1.8546205701     0.3320275263
Bq        -4.3821855222     1.7676551361     0.1519261325
Bq        -4.3832475089     1.8981032871     0.4220782232
Bq        -4.3818315266     1.7241724191     0.0618754357
Bq        -4.3836015045     1.9415860041     0.5121289201
Bq        -4.3814775310     1.6806897021    -0.0281752612
Bq        -4.3839555001     1.9850687211     0.6021796170
Bq        -4.3811235355     1.6372069851    -0.1182259581
Bq        -4.3843094956     2.0285514381     0.6922303138
Bq        -4.3807695399     1.5937242681    -0.2082766550
Bq        -4.3825395178     1.8111378531     0.2419768294
Bq        -4.3827225811     1.9446719628     0.2885451453
Bq        -4.3820145899     1.8577065288     0.1084437515
Bq        -4.3830765766     1.9881546798     0.3785958422
Bq        -4.3816605943     1.8142238118     0.0183930546
Bq        -4.3834305722     2.0316373968     0.4686465390
Bq        -4.3813065988     1.7707410947    -0.0716576423
Bq        -4.3837845678     2.0751201138     0.5586972359
Bq        -4.3809526032     1.7272583777    -0.1617083391
Bq        -4.3841385634     2.1186028308     0.6487479328
Bq        -4.3805986076     1.6837756607    -0.2517590360
Bq        -4.3823685855     1.9011892458     0.1984944484
Bq        -4.3825516488     2.0347233554     0.2450627642
Bq        -4.3818436576     1.9477579214     0.0649613705
Bq        -4.3829056444     2.0782060724     0.3351134611
Bq        -4.3814896621     1.9042752044    -0.0250893264
Bq        -4.3832596399     2.1216887894     0.4251641580
Bq        -4.3811356665     1.8607924874    -0.1151400233
Bq        -4.3836136355     2.1651715065     0.5152148549
Bq        -4.3807816709     1.8173097704    -0.2051907202
Bq        -4.3839676311     2.2086542235     0.6052655518
Bq        -4.3804276753     1.7738270534    -0.2952414171
Bq        -4.3821976532     1.9912406384     0.1550120674
Bq        -4.3823807165     2.1247747481     0.2015803832
Bq        -4.3816727254     2.0378093141     0.0214789894
Bq        -4.3827347121     2.1682574651     0.2916310801
Bq        -4.3813187298     1.9943265971    -0.0685717074
Bq        -4.3830887077     2.2117401821     0.3816817770
Bq        -4.3809647342     1.9508438801    -0.1586224043
Bq        -4.3834427032     2.2552228991     0.4717324739
Bq        -4.3806107386     1.9073611631    -0.2486731012
Bq        -4.3837966988     2.2987056161     0.5617831707
Bq        -4.3802567431     1.8638784461    -0.3387237981
Bq        -4.3820267209     2.0812920311     0.1115296863
Bq        -4.3822097842     2.2148261408     0.1580980022
Bq        -4.3815017931     2.1278607068    -0.0220033916
Bq        -4.3825637798     2.2583088578     0.2481486991
Bq        -4.3811477975     2.0843779898    -0.1120540885
Bq        -4.3829177754     2.3017915748     0.3381993959
Bq        -4.3807938019     2.0408952728    -0.2021047854
Bq        -4.3832717710     2.3452742918     0.4282500928
Bq        -4.3804398064     1.9974125558    -0.2921554822
Bq        -4.3836257665     2.3887570088     0.5183007897
Bq        -4.3800858108     1.9539298388    -0.3822061791
Bq        -4.3818557887     2.1713434238     0.0680473053
Bq        -4.3820388520     2.3048775334     0.1146156211
Bq        -4.3813308608     2.2179120994    -0.0654857726
Bq        -4.3823928475     2.3483602505     0.2046663180
Bq        -4.3809768652     2.1744293824    -0.1555364695
Bq        -4.3827468431     2.3918429675     0.2947170149
Bq        -4.3806228697     2.1309466654    -0.2455871664
Bq        -4.3831008387     2.4353256845     0.3847677118
Bq        -4.3802688741     2.0874639484    -0.3356378633
Bq        -4.3834548343     2.4788084015     0.4748184087
Bq        -4.3799148785     2.0439812314    -0.4256885602
Bq        -4.3816848564     2.2613948164     0.0245649243
Bq        -4.3818679197     2.3949289261     0.0711332401
Bq        -4.3811599285     2.3079634921    -0.1089681537
Bq        -4.3822219153     2.4384116431     0.1611839370
Bq        -4.3808059330     2.2644807751    -0.1990188505
Bq        -4.3825759108     2.4818943601     0.2512346339
Bq        -4.3804519374     2.2209980581    -0.2890695474
Bq        -4.3829299064     2.5253770771     0.3412853308
Bq        -4.3800979418     2.1775153411    -0.3791202443
Bq        -4.3832839020     2.5688597941     0.4313360276
Bq        -4.3797439462     2.1340326241    -0.4691709412
Bq        -4.3815139241     2.3514462091    -0.0189174568

1
2
3
4
5
6
7
8
9
10
11
12
13
14
15
16
17
18
19
20
21
22
23
24
25
26
27
28
29
30
31
32
33
34
35
36
37
38
39
40
41
42
43
44
45
46
47
48
49
50
51
52
53
54
55
56
57
58
59
60
61
62
63
64
65
66
67
68
69
70
71
72
73
74
75
76
77
78
79
80
81
82
83
84
85
86
87
88
89
90
91
92
93
94
95
96
97
98
99
100
101
102
103
104
105
106
107
108
109
110
111
112
113
114
115
116
117
118
119
120
121
122
123
124
125
126
127
128
129
130
131
132
133
134
135
136
137
138
139
140
141
142
143
144
145
146
147
148
149
150
151
152
153
154
155
156
157
158
159
160
161
162
163
164
165
166
167
168
169
170
171
172
173
174
175
176
177
178
179
180
181
182
183
184
185
186
187
188
189
190
191
192
193
194
195
196
197
198
199
200
201
202
203
204
205
206
207
208
209
210
211
212
213
214
215
216
217
218
219
220
221
222
223
224
225
226
227
228
229
230
231
232
233
234
235
236

