%nproc=8
%mem=1000MB
# rb3lyp/6-311+g** NMR geom=connectivity

Title

0 1
C    -4.0500558   -0.5771862    0.8136712
H    -5.0263804   -1.0082727    1.0024760
C    -3.9381552    0.6617804    0.2400876
H    -4.8252424    1.2338890   -0.0111295
C    -2.6768410    1.2433246    0.0057578
C    -1.4974121    0.5051527    0.2848253
C    -1.6508332   -0.7338728    0.9404026
H    -0.7713646   -1.2730967    1.2633753
C    -2.8898548   -1.2624035    1.1994307
H    -2.9683706   -2.2124563    1.7152676
C    -2.5773185    2.5963696   -0.4192930
H    -3.4870728    3.1412239   -0.6474055
C    -1.3741895    3.2147896   -0.4364030
H    -1.2997315    4.2742019   -0.6578144
C    -0.1719488    2.4994090   -0.1734588
C    -0.2043917    1.1018437    0.0192689
C     1.0513491    3.2042560   -0.0676222
H     1.0427344    4.2819499   -0.1896997
C     2.1942091    2.5487446    0.2579577
H     3.1168527    3.0912848    0.4334727
C     2.2216473    1.1336562    0.2934990
C     1.0486931    0.3945528    0.0302412
C     3.4483363    0.4614633    0.5573939
H     4.3095794    1.0606054    0.8334846
C     3.5427346   -0.8855926    0.4749463
H     4.4731467   -1.3939704    0.7038822
C     2.4490052   -1.6474447   -0.0196319
C     1.2150704   -1.0057258   -0.3013573
C     0.2531113   -1.7434440   -1.0216591
H    -0.6541356   -1.2535051   -1.3462847
C     0.4494193   -3.0628597   -1.3413779
H    -0.3083162   -3.5944309   -1.9054060
C     1.6251726   -3.7207967   -0.9552541
H     1.7670048   -4.7687404   -1.1927019
C     2.6109872   -3.0144177   -0.3183050
H     3.5525612   -3.4902813   -0.0646367
Bq        -2.1916765819    -1.8436584467     2.5706209850
Bq        -2.1881366261    -2.2784856168     1.6701140161
Bq        -2.1899066040    -2.0610720317     2.1203675005
Bq        -2.1900896673    -1.9275379221     2.1669358164
Bq        -2.1893816762    -2.0145033561     1.9868344226
Bq        -2.1904436629    -1.8840552051     2.2569865133
Bq        -2.1890276806    -2.0579860731     1.8967837257
Bq        -2.1907976585    -1.8405724881     2.3470372102
Bq        -2.1886736850    -2.1014687901     1.8067330289
Bq        -2.1911516540    -1.7970897711     2.4370879070
Bq        -2.1883196894    -2.1449515071     1.7166823320
Bq        -2.1915056496    -1.7536070540     2.5271386039
Bq        -2.1879656939    -2.1884342241     1.6266316351
Bq        -2.1897356717    -1.9710206391     2.0768851195
Bq        -2.1899187350    -1.8374865294     2.1234534354
Bq        -2.1892107439    -1.9244519634     1.9433520416
Bq        -2.1902727306    -1.7940038124     2.2135041322
Bq        -2.1888567483    -1.9679346804     1.8533013447
Bq        -2.1906267262    -1.7505210954     2.3035548291
Bq        -2.1885027527    -2.0114173974     1.7632506478
Bq        -2.1909807218    -1.7070383784     2.3936055260
Bq        -2.1881487572    -2.0549001144     1.6731999509
Bq        -2.1913347173    -1.6635556614     2.4836562229
Bq        -2.1877947616    -2.0983828314     1.5831492541
Bq        -2.1895647395    -1.8809692464     2.0334027385
Bq        -2.1897478028    -1.7474351367     2.0799710543
Bq        -2.1890398116    -1.8344005707     1.8998696606
Bq        -2.1901017983    -1.7039524197     2.1700217512
Bq        -2.1886858160    -1.8778832877     1.8098189637
Bq        -2.1904557939    -1.6604697027     2.2600724481
Bq        -2.1883318205    -1.9213660047     1.7197682668
Bq        -2.1908097895    -1.6169869857     2.3501231450
Bq        -2.1879778249    -1.9648487217     1.6297175699
Bq        -2.1911637851    -1.5735042687     2.4401738419
Bq        -2.1876238293    -2.0083314388     1.5396668730
Bq        -2.1893938072    -1.7909178537     1.9899203574
Bq        -2.1895768705    -1.6573837441     2.0364886733
Bq        -2.1888688793    -1.7443491781     1.8563872795
Bq        -2.1899308661    -1.6139010270     2.1265393702
Bq        -2.1885148838    -1.7878318951     1.7663365826
Bq        -2.1902848616    -1.5704183100     2.2165900671
Bq        -2.1881608882    -1.8313146121     1.6762858858
Bq        -2.1906388572    -1.5269355930     2.3066407639
Bq        -2.1878068926    -1.8747973291     1.5862351889
Bq        -2.1909928528    -1.4834528760     2.3966914608
Bq        -2.1874528970    -1.9182800461     1.4961844920
Bq        -2.1892228749    -1.7008664611     1.9464379764
Bq        -2.1894059382    -1.5673323514     1.9930062923
Bq        -2.1886979471    -1.6542977854     1.8129048985
Bq        -2.1897599338    -1.5238496344     2.0830569891
Bq        -2.1883439515    -1.6977805024     1.7228542016
Bq        -2.1901139294    -1.4803669174     2.1731076860
Bq        -2.1879899559    -1.7412632194     1.6328035047
Bq        -2.1904679249    -1.4368842004     2.2631583829
Bq        -2.1876359603    -1.7847459364     1.5427528079
Bq        -2.1908219205    -1.3934014834     2.3532090798
Bq        -2.1872819648    -1.8282286534     1.4527021110
Bq        -2.1890519426    -1.6108150684     1.9029555954
Bq        -2.1892350059    -1.4772809587     1.9495239112
Bq        -2.1885270148    -1.5642463927     1.7694225175
Bq        -2.1895890015    -1.4337982417     2.0395746081
Bq        -2.1881730192    -1.6077291097     1.6793718206
Bq        -2.1899429971    -1.3903155247     2.1296253050
Bq        -2.1878190236    -1.6512118267     1.5893211237
Bq        -2.1902969927    -1.3468328077     2.2196760019
Bq        -2.1874650281    -1.6946945437     1.4992704268
Bq        -2.1906509882    -1.3033500907     2.3097266988
Bq        -2.1871110325    -1.7381772607     1.4092197299
Bq        -2.1888810104    -1.5207636757     1.8594732143
Bq        -2.1890640737    -1.3872295660     1.9060415302
Bq        -2.1883560825    -1.4741950001     1.7259401364
Bq        -2.1894180692    -1.3437468490     1.9960922271
Bq        -2.1880020869    -1.5176777171     1.6358894396
Bq        -2.1897720648    -1.3002641320     2.0861429240
Bq        -2.1876480914    -1.5611604341     1.5458387427
Bq        -2.1901260604    -1.2567814150     2.1761936208
Bq        -2.1872940958    -1.6046431511     1.4557880458
Bq        -2.1904800560    -1.2132986980     2.2662443177
Bq        -2.1869401002    -1.6481258681     1.3657373489
Bq        -2.1887100781    -1.4307122830     1.8159908333
Bq        -2.1888931414    -1.2971781734     1.8625591492
Bq        -2.1881851502    -1.3841436074     1.6824577554
Bq        -2.1892471370    -1.2536954564     1.9526098460
Bq        -2.1878311547    -1.4276263244     1.5924070585
Bq        -2.1896011325    -1.2102127394     2.0426605429
Bq        -2.1874771591    -1.4711090414     1.5023563616
Bq        -2.1899551281    -1.1667300224     2.1327112398
Bq        -2.1871231635    -1.5145917584     1.4123056648
Bq        -2.1903091237    -1.1232473054     2.2227619367
Bq        -2.1867691679    -1.5580744754     1.3222549679
Bq        -2.1885391458    -1.3406608904     1.7725084523
Bq        -2.1887222091    -1.2071267807     1.8190767681
Bq        -2.1880142180    -1.2940922147     1.6389753744
Bq        -2.1890762047    -1.1636440637     1.9091274650
Bq        -2.1876602224    -1.3375749317     1.5489246775
Bq        -2.1894302003    -1.1201613467     1.9991781619
Bq        -2.1873062268    -1.3810576487     1.4588739806
Bq        -2.1897841958    -1.0766786297     2.0892288588
Bq        -2.1869522312    -1.4245403657     1.3688232837
Bq        -2.1901381914    -1.0331959127     2.1792795557
Bq        -2.1865982357    -1.4680230827     1.2787725868
Bq        -2.1883682135    -1.2506094977     1.7290260713
Bq        -2.1885512768    -1.1170753880     1.7755943871
Bq        -2.1878432857    -1.2040408220     1.5954929933
Bq        -2.1889052724    -1.0735926710     1.8656450840
Bq        -2.1874892901    -1.2475235390     1.5054422965
Bq        -2.1892592680    -1.0301099540     1.9556957809
Bq        -2.1871352945    -1.2910062560     1.4153915996
Bq        -2.1896132636    -0.9866272370     2.0457464778
Bq        -2.1867812990    -1.3344889731     1.3253409027
Bq        -2.1899672591    -0.9431445200     2.1357971746
Bq        -2.1864273034    -1.3779716901     1.2352902058
Bq        -2.1881972813    -1.1605581050     1.6855436902
Bq        -2.1883803446    -1.0270239954     1.7321120061
Bq        -2.1876723534    -1.1139894294     1.5520106123
Bq        -2.1887343401    -0.9835412784     1.8221627030
Bq        -2.1873183578    -1.1574721464     1.4619599154
Bq        -2.1890883357    -0.9400585614     1.9122133998
Bq        -2.1869643623    -1.2009548634     1.3719092185
Bq        -2.1894423313    -0.8965758443     2.0022640967
Bq        -2.1866103667    -1.2444375804     1.2818585217
Bq        -2.1897963269    -0.8530931273     2.0923147936
Bq        -2.1862563711    -1.2879202974     1.1918078248
Bq        -2.1880263490    -1.0705067124     1.6420613092
Bq        -2.1882094123    -0.9369726027     1.6886296250
Bq        -2.1875014211    -1.0239380367     1.5085282313
Bq        -2.1885634079    -0.8934898857     1.7786803219
Bq        -2.1871474256    -1.0674207537     1.4184775344
Bq        -2.1889174034    -0.8500071687     1.8687310188
Bq        -2.1867934300    -1.1109034707     1.3284268375
Bq        -2.1892713990    -0.8065244517     1.9587817157
Bq        -2.1864394344    -1.1543861877     1.2383761406
Bq        -2.1896253946    -0.7630417347     2.0488324126
Bq        -2.1860854388    -1.1978689047     1.1483254437
Bq        -2.1878554167    -0.9804553197     1.5985789282
Bq        -2.1880384800    -0.8469212100     1.6451472440
Bq        -2.1873304889    -0.9338866440     1.4650458502
Bq        -2.1883924756    -0.8034384930     1.7351979409
Bq        -2.1869764933    -0.9773693610     1.3749951534
Bq        -2.1887464712    -0.7599557760     1.8252486378
Bq        -2.1866224977    -1.0208520780     1.2849444565
Bq        -2.1891004667    -0.7164730590     1.9152993347
Bq        -2.1862685021    -1.0643347950     1.1948937596
Bq        -2.1894544623    -0.6729903420     2.0053500315
Bq        -2.1859145066    -1.1078175120     1.1048430627
Bq        -2.1876844844    -0.8904039270     1.5550965471
Bq        -2.1878675477    -0.7568698173     1.6016648630
Bq        -2.1871595566    -0.8438352514     1.4215634692
Bq        -2.1882215433    -0.7133871003     1.6917155599
Bq        -2.1868055610    -0.8873179684     1.3315127723
Bq        -2.1885755389    -0.6699043833     1.7817662567
Bq        -2.1864515654    -0.9308006854     1.2414620754
Bq        -2.1889295345    -0.6264216663     1.8718169536
Bq        -2.1860975699    -0.9742834024     1.1514113786
Bq        -2.1892835300    -0.5829389493     1.9618676505
Bq        -2.1857435743    -1.0177661194     1.0613606817
Bq        -2.1875135522    -0.8003525344     1.5116141661
Bq        -2.1876966155    -0.6668184247     1.5581824819
Bq        -2.1869886243    -0.7537838587     1.3780810882
Bq        -2.1880506110    -0.6233357077     1.6482331788
Bq        -2.1866346287    -0.7972665757     1.2880303913
Bq        -2.1884046066    -0.5798529907     1.7382838757
Bq        -2.1862806332    -0.8407492927     1.1979796944
Bq        -2.1887586022    -0.5363702737     1.8283345726
Bq        -2.1859266376    -0.8842320097     1.1079289975
Bq        -2.1891125978    -0.4928875567     1.9183852695
Bq        -2.1855726420    -0.9277147267     1.0178783006
Bq        -2.1873426199    -0.7103011417     1.4681317851
Bq        -2.1875256832    -0.5767670320     1.5147001009
Bq        -2.1868176920    -0.6637324660     1.3345987071
Bq        -2.1878796788    -0.5332843150     1.6047507978
Bq        -2.1864636965    -0.7072151830     1.2445480103
Bq        -2.1882336743    -0.4898015980     1.6948014947
Bq        -2.1861097009    -0.7506979000     1.1544973134
Bq        -2.1885876699    -0.4463188810     1.7848521916
Bq        -2.1857557053    -0.7941806170     1.0644466165
Bq        -2.1889416655    -0.4028361640     1.8749028884
Bq        -2.1854017097    -0.8376633340     0.9743959196
Bq        -2.1871716876    -0.6202497490     1.4246494040
Bq        -2.1873547509    -0.4867156393     1.4712177199
Bq        -2.1866467598    -0.5736810733     1.2911163261
Bq        -2.1877087465    -0.4432329223     1.5612684168
Bq        -2.1862927642    -0.6171637904     1.2010656292
Bq        -2.1880627421    -0.3997502053     1.6513191136
Bq        -2.1859387686    -0.6606465074     1.1110149323
Bq        -2.1884167376    -0.3562674883     1.7413698105
Bq        -2.1855847730    -0.7041292244     1.0209642355
Bq        -2.1887707332    -0.3127847713     1.8314205074
Bq        -2.1852307775    -0.7476119414     0.9309135386
Bq        -2.1870007553    -0.5301983563     1.3811670230
Bq        -2.1871838186    -0.3966642467     1.4277353388
Bq        -2.1864758275    -0.4836296807     1.2476339451
Bq        -2.1875378142    -0.3531815297     1.5177860357
Bq        -2.1861218319    -0.5271123977     1.1575832482
Bq        -2.1878918098    -0.3096988127     1.6078367326
Bq        -2.1857678363    -0.5705951147     1.0675325513
Bq        -2.1882458054    -0.2662160957     1.6978874295
Bq        -2.1854138408    -0.6140778317     0.9774818544
Bq        -2.1885998009    -0.2227333786     1.7879381264
Bq        -2.1850598452    -0.6575605487     0.8874311575

1
2
3
4
5
6
7
8
9
10
11
12
13
14
15
16
17
18
19
20
21
22
23
24
25
26
27
28
29
30
31
32
33
34
35
36
37
38
39
40
41
42
43
44
45
46
47
48
49
50
51
52
53
54
55
56
57
58
59
60
61
62
63
64
65
66
67
68
69
70
71
72
73
74
75
76
77
78
79
80
81
82
83
84
85
86
87
88
89
90
91
92
93
94
95
96
97
98
99
100
101
102
103
104
105
106
107
108
109
110
111
112
113
114
115
116
117
118
119
120
121
122
123
124
125
126
127
128
129
130
131
132
133
134
135
136
137
138
139
140
141
142
143
144
145
146
147
148
149
150
151
152
153
154
155
156
157
158
159
160
161
162
163
164
165
166
167
168
169
170
171
172
173
174
175
176
177
178
179
180
181
182
183
184
185
186
187
188
189
190
191
192
193
194
195
196
197
198
199
200
201
202
203
204
205
206
207
208
209
210
211
212
213
214
215
216
217
218
219
220
221
222
223
224
225
226
227
228
229
230
231
232
233
234
235
236

