%nproc=8
%mem=1000MB
# rb3lyp/6-311+g** NMR geom=connectivity

Title

0 1
C    -4.0500558   -0.5771862    0.8136712
H    -5.0263804   -1.0082727    1.0024760
C    -3.9381552    0.6617804    0.2400876
H    -4.8252424    1.2338890   -0.0111295
C    -2.6768410    1.2433246    0.0057578
C    -1.4974121    0.5051527    0.2848253
C    -1.6508332   -0.7338728    0.9404026
H    -0.7713646   -1.2730967    1.2633753
C    -2.8898548   -1.2624035    1.1994307
H    -2.9683706   -2.2124563    1.7152676
C    -2.5773185    2.5963696   -0.4192930
H    -3.4870728    3.1412239   -0.6474055
C    -1.3741895    3.2147896   -0.4364030
H    -1.2997315    4.2742019   -0.6578144
C    -0.1719488    2.4994090   -0.1734588
C    -0.2043917    1.1018437    0.0192689
C     1.0513491    3.2042560   -0.0676222
H     1.0427344    4.2819499   -0.1896997
C     2.1942091    2.5487446    0.2579577
H     3.1168527    3.0912848    0.4334727
C     2.2216473    1.1336562    0.2934990
C     1.0486931    0.3945528    0.0302412
C     3.4483363    0.4614633    0.5573939
H     4.3095794    1.0606054    0.8334846
C     3.5427346   -0.8855926    0.4749463
H     4.4731467   -1.3939704    0.7038822
C     2.4490052   -1.6474447   -0.0196319
C     1.2150704   -1.0057258   -0.3013573
C     0.2531113   -1.7434440   -1.0216591
H    -0.6541356   -1.2535051   -1.3462847
C     0.4494193   -3.0628597   -1.3413779
H    -0.3083162   -3.5944309   -1.9054060
C     1.6251726   -3.7207967   -0.9552541
H     1.7670048   -4.7687404   -1.1927019
C     2.6109872   -3.0144177   -0.3183050
H     3.5525612   -3.4902813   -0.0646367
Bq         2.5050056111    -2.0866721069     0.3673417775
Bq         2.3854203197    -2.1665190602     0.6306359516
Bq         2.5448673749    -2.0600564558     0.2795770528
Bq         2.3455585559    -2.1931347113     0.7184006763
Bq         2.5847291387    -2.0334408047     0.1918123281
Bq         2.3056967921    -2.2197503624     0.8061654010
Bq         2.6245909024    -2.0068251536     0.1040476033
Bq         2.2658350284    -2.2463660136     0.8939301258
Bq         2.6644526662    -1.9802095025     0.0162828786
Bq         2.4651438473    -2.1132877580     0.4551065022
Bq         2.4142756101    -2.0435104264     0.5671044774
Bq         2.4939991377    -1.9902791242     0.3915750279
Bq         2.3744138463    -2.0701260775     0.6548692021
Bq         2.5338609015    -1.9636634731     0.3038103032
Bq         2.3345520826    -2.0967417286     0.7426339268
Bq         2.5737226653    -1.9370478220     0.2160455785
Bq         2.2946903188    -2.1233573797     0.8303986515
Bq         2.6135844291    -1.9104321709     0.1282808538
Bq         2.2548285550    -2.1499730308     0.9181633762
Bq         2.6534461929    -1.8838165198     0.0405161291
Bq         2.4541373739    -2.0168947753     0.4793397527
Bq         2.4032691368    -1.9471174437     0.5913377278
Bq         2.4829926643    -1.8938861415     0.4158082784
Bq         2.3634073730    -1.9737330948     0.6791024525
Bq         2.5228544281    -1.8672704904     0.3280435537
Bq         2.3235456092    -2.0003487459     0.7668671772
Bq         2.5627161919    -1.8406548393     0.2402788290
Bq         2.2836838454    -2.0269643970     0.8546319020
Bq         2.6025779557    -1.8140391882     0.1525141043
Bq         2.2438220816    -2.0535800481     0.9423966267
Bq         2.6424397195    -1.7874235371     0.0647493795
Bq         2.4431309006    -1.9205017926     0.5035730031
Bq         2.3922626634    -1.8507244610     0.6155709783
Bq         2.4719861910    -1.7974931588     0.4400415289
Bq         2.3524008996    -1.8773401121     0.7033357030
Bq         2.5118479548    -1.7708775077     0.3522768041
Bq         2.3125391358    -1.9039557632     0.7911004277
Bq         2.5517097185    -1.7442618566     0.2645120794
Bq         2.2726773720    -1.9305714143     0.8788651524
Bq         2.5915714823    -1.7176462055     0.1767473547
Bq         2.2328156082    -1.9571870654     0.9666298771
Bq         2.6314332461    -1.6910305543     0.0889826300
Bq         2.4321244272    -1.8241088099     0.5278062536
Bq         2.3812561900    -1.7543314783     0.6398042287
Bq         2.4609797176    -1.7011001761     0.4642747793
Bq         2.3413944262    -1.7809471294     0.7275689535
Bq         2.5008414814    -1.6744845250     0.3765100546
Bq         2.3015326624    -1.8075627805     0.8153336782
Bq         2.5407032452    -1.6478688739     0.2887453299
Bq         2.2616708987    -1.8341784316     0.9030984029
Bq         2.5805650090    -1.6212532227     0.2009806052
Bq         2.2218091349    -1.8607940827     0.9908631276
Bq         2.6204267727    -1.5946375716     0.1132158805
Bq         2.4211179538    -1.7277158272     0.5520395040
Bq         2.3702497166    -1.6579384956     0.6640374792
Bq         2.4499732442    -1.6047071934     0.4885080298
Bq         2.3303879529    -1.6845541467     0.7518022039
Bq         2.4898350080    -1.5780915422     0.4007433051
Bq         2.2905261891    -1.7111697978     0.8395669286
Bq         2.5296967718    -1.5514758911     0.3129785803
Bq         2.2506644253    -1.7377854489     0.9273316533
Bq         2.5695585356    -1.5248602400     0.2252138556
Bq         2.2108026615    -1.7644011000     1.0150963780
Bq         2.6094202994    -1.4982445889     0.1374491309
Bq         2.4101114804    -1.6313228445     0.5762727545
Bq         2.3592432433    -1.5615455129     0.6882707297
Bq         2.4389667709    -1.5083142106     0.5127412802
Bq         2.3193814795    -1.5881611640     0.7760354544
Bq         2.4788285346    -1.4816985595     0.4249765555
Bq         2.2795197157    -1.6147768151     0.8638001791
Bq         2.5186902984    -1.4550829084     0.3372118308
Bq         2.2396579519    -1.6413924662     0.9515649038
Bq         2.5585520622    -1.4284672573     0.2494471061
Bq         2.1997961881    -1.6680081173     1.0393296285
Bq         2.5984138260    -1.4018516062     0.1616823814
Bq         2.3991050071    -1.5349298617     0.6005060049
Bq         2.3482367699    -1.4651525301     0.7125039801
Bq         2.4279602975    -1.4119212279     0.5369745307
Bq         2.3083750061    -1.4917681812     0.8002687048
Bq         2.4678220613    -1.3853055768     0.4492098060
Bq         2.2685132423    -1.5183838324     0.8880334295
Bq         2.5076838251    -1.3586899257     0.3614450813
Bq         2.2286514785    -1.5449994835     0.9757981542
Bq         2.5475455888    -1.3320742746     0.2736803565
Bq         2.1887897148    -1.5716151346     1.0635628790
Bq         2.5874073526    -1.3054586235     0.1859156318
Bq         2.3880985337    -1.4385368790     0.6247392554
Bq         2.3372302965    -1.3687595474     0.7367372306
Bq         2.4169538241    -1.3155282452     0.5612077811
Bq         2.2973685327    -1.3953751985     0.8245019553
Bq         2.4568155879    -1.2889125941     0.4734430564
Bq         2.2575067690    -1.4219908496     0.9122666800
Bq         2.4966773517    -1.2622969430     0.3856783317
Bq         2.2176450052    -1.4486065008     1.0000314047
Bq         2.5365391155    -1.2356812919     0.2979136070
Bq         2.1777832414    -1.4752221519     1.0877961294
Bq         2.5764008793    -1.2090656408     0.2101488823
Bq         2.3770920603    -1.3421438963     0.6489725059
Bq         2.3262238232    -1.2723665647     0.7609704810
Bq         2.4059473507    -1.2191352625     0.5854410316
Bq         2.2863620594    -1.2989822158     0.8487352057
Bq         2.4458091145    -1.1925196114     0.4976763069
Bq         2.2465002956    -1.3255978669     0.9364999305
Bq         2.4856708783    -1.1659039603     0.4099115822
Bq         2.2066385318    -1.3522135180     1.0242646552
Bq         2.5255326421    -1.1392883092     0.3221468575
Bq         2.1667767680    -1.3788291691     1.1120293799
Bq         2.5653944059    -1.1126726581     0.2343821328
Bq         2.3660855869    -1.2457509136     0.6732057563
Bq         2.3152173498    -1.1759735820     0.7852037315
Bq         2.3949408774    -1.1227422798     0.6096742821
Bq         2.2753555860    -1.2025892331     0.8729684562
Bq         2.4348026412    -1.0961266287     0.5219095573
Bq         2.2354938222    -1.2292048842     0.9607331809
Bq         2.4746644049    -1.0695109776     0.4341448326
Bq         2.1956320584    -1.2558205353     1.0484979056
Bq         2.5145261687    -1.0428953265     0.3463801079
Bq         2.1557702946    -1.2824361864     1.1362626303
Bq         2.5543879325    -1.0162796754     0.2586153832
Bq         2.3550791136    -1.1493579309     0.6974390068
Bq         2.3042108764    -1.0795805993     0.8094369819
Bq         2.3839344040    -1.0263492971     0.6339075325
Bq         2.2643491126    -1.1061962504     0.8972017067
Bq         2.4237961678    -0.9997336460     0.5461428078
Bq         2.2244873488    -1.1328119015     0.9849664314
Bq         2.4636579316    -0.9731179949     0.4583780831
Bq         2.1846255851    -1.1594275526     1.0727311561
Bq         2.5035196954    -0.9465023438     0.3706133584
Bq         2.1447638213    -1.1860432037     1.1604958808
Bq         2.5433814591    -0.9198866927     0.2828486337
Bq         2.3440726402    -1.0529649482     0.7216722572
Bq         2.2932044030    -0.9831876166     0.8336702324
Bq         2.3729279306    -0.9299563144     0.6581407830
Bq         2.2533426393    -1.0098032677     0.9214349571
Bq         2.4127896944    -0.9033406633     0.5703760583
Bq         2.2134808755    -1.0364189188     1.0091996818
Bq         2.4526514582    -0.8767250122     0.4826113336
Bq         2.1736191117    -1.0630345699     1.0969644065
Bq         2.4925132220    -0.8501093610     0.3948466088
Bq         2.1337573479    -1.0896502210     1.1847291313
Bq         2.5323749858    -0.8234937099     0.3070818841
Bq         2.3330661668    -0.9565719655     0.7459055077
Bq         2.2821979297    -0.8867946339     0.8579034829
Bq         2.3619214572    -0.8335633317     0.6823740334
Bq         2.2423361659    -0.9134102850     0.9456682076
Bq         2.4017832210    -0.8069476805     0.5946093087
Bq         2.2024744021    -0.9400259361     1.0334329323
Bq         2.4416449848    -0.7803320294     0.5068445840
Bq         2.1626126383    -0.9666415872     1.1211976570
Bq         2.4815067486    -0.7537163783     0.4190798593
Bq         2.1227508745    -0.9932572383     1.2089623817
Bq         2.5213685124    -0.7271007272     0.3313151346
Bq         2.3220596935    -0.8601789828     0.7701387581
Bq         2.2711914563    -0.7904016512     0.8821367333
Bq         2.3509149839    -0.7371703489     0.7066072839
Bq         2.2313296925    -0.8170173023     0.9699014580
Bq         2.3907767477    -0.7105546978     0.6188425592
Bq         2.1914679287    -0.8436329534     1.0576661827
Bq         2.4306385114    -0.6839390467     0.5310778345
Bq         2.1516061649    -0.8702486045     1.1454309075
Bq         2.4705002752    -0.6573233956     0.4433131098
Bq         2.1117444011    -0.8968642556     1.2331956322
Bq         2.5103620390    -0.6307077445     0.3555483850
Bq         2.3110532201    -0.7637860000     0.7943720086
Bq         2.2601849829    -0.6940086684     0.9063699838
Bq         2.3399085105    -0.6407773662     0.7308405343
Bq         2.2203232191    -0.7206243196     0.9941347085
Bq         2.3797702743    -0.6141617151     0.6430758096
Bq         2.1804614554    -0.7472399707     1.0818994332
Bq         2.4196320381    -0.5875460640     0.5553110849
Bq         2.1405996916    -0.7738556218     1.1696641579
Bq         2.4594938019    -0.5609304129     0.4675463602
Bq         2.1007379278    -0.8004712729     1.2574288826
Bq         2.4993555657    -0.5343147618     0.3797816355
Bq         2.3000467467    -0.6673930173     0.8186052591
Bq         2.2491785096    -0.5976156857     0.9306032342
Bq         2.3289020371    -0.5443843835     0.7550737848
Bq         2.2093167458    -0.6242313368     1.0183679589
Bq         2.3687638009    -0.5177687324     0.6673090601
Bq         2.1694549820    -0.6508469879     1.1061326837
Bq         2.4086255647    -0.4911530813     0.5795443354
Bq         2.1295932182    -0.6774626391     1.1938974084
Bq         2.4484873285    -0.4645374302     0.4917796107
Bq         2.0897314544    -0.7040782902     1.2816621331
Bq         2.4883490923    -0.4379217791     0.4040148860
Bq         2.2890402733    -0.5710000346     0.8428385095
Bq         2.2381720362    -0.5012227030     0.9548364847
Bq         2.3178955638    -0.4479914008     0.7793070353
Bq         2.1983102724    -0.5278383541     1.0426012094
Bq         2.3577573275    -0.4213757497     0.6915423106
Bq         2.1584485086    -0.5544540052     1.1303659341
Bq         2.3976190913    -0.3947600986     0.6037775858
Bq         2.1185867448    -0.5810696563     1.2181306588
Bq         2.4374808551    -0.3681444475     0.5160128611
Bq         2.0787249810    -0.6076853074     1.3058953835
Bq         2.4773426189    -0.3415287964     0.4282481364
Bq         2.2780338000    -0.4746070519     0.8670717600
Bq         2.2271655628    -0.4048297203     0.9790697351
Bq         2.3068890904    -0.3515984181     0.8035402857
Bq         2.1873037990    -0.4314453714     1.0668344599

1
2
3
4
5
6
7
8
9
10
11
12
13
14
15
16
17
18
19
20
21
22
23
24
25
26
27
28
29
30
31
32
33
34
35
36
37
38
39
40
41
42
43
44
45
46
47
48
49
50
51
52
53
54
55
56
57
58
59
60
61
62
63
64
65
66
67
68
69
70
71
72
73
74
75
76
77
78
79
80
81
82
83
84
85
86
87
88
89
90
91
92
93
94
95
96
97
98
99
100
101
102
103
104
105
106
107
108
109
110
111
112
113
114
115
116
117
118
119
120
121
122
123
124
125
126
127
128
129
130
131
132
133
134
135
136
137
138
139
140
141
142
143
144
145
146
147
148
149
150
151
152
153
154
155
156
157
158
159
160
161
162
163
164
165
166
167
168
169
170
171
172
173
174
175
176
177
178
179
180
181
182
183
184
185
186
187
188
189
190
191
192
193
194
195
196
197
198
199
200
201
202
203
204
205
206
207
208
209
210
211
212
213
214
215
216
217
218
219
220
221
222
223
224
225
226
227
228
229
230
231
232
233
234
235
236

