%nproc=8
%mem=1000MB
# rb3lyp/6-311+g** NMR geom=connectivity

Title

0 1
C    -4.0500558   -0.5771862    0.8136712
H    -5.0263804   -1.0082727    1.0024760
C    -3.9381552    0.6617804    0.2400876
H    -4.8252424    1.2338890   -0.0111295
C    -2.6768410    1.2433246    0.0057578
C    -1.4974121    0.5051527    0.2848253
C    -1.6508332   -0.7338728    0.9404026
H    -0.7713646   -1.2730967    1.2633753
C    -2.8898548   -1.2624035    1.1994307
H    -2.9683706   -2.2124563    1.7152676
C    -2.5773185    2.5963696   -0.4192930
H    -3.4870728    3.1412239   -0.6474055
C    -1.3741895    3.2147896   -0.4364030
H    -1.2997315    4.2742019   -0.6578144
C    -0.1719488    2.4994090   -0.1734588
C    -0.2043917    1.1018437    0.0192689
C     1.0513491    3.2042560   -0.0676222
H     1.0427344    4.2819499   -0.1896997
C     2.1942091    2.5487446    0.2579577
H     3.1168527    3.0912848    0.4334727
C     2.2216473    1.1336562    0.2934990
C     1.0486931    0.3945528    0.0302412
C     3.4483363    0.4614633    0.5573939
H     4.3095794    1.0606054    0.8334846
C     3.5427346   -0.8855926    0.4749463
H     4.4731467   -1.3939704    0.7038822
C     2.4490052   -1.6474447   -0.0196319
C     1.2150704   -1.0057258   -0.3013573
C     0.2531113   -1.7434440   -1.0216591
H    -0.6541356   -1.2535051   -1.3462847
C     0.4494193   -3.0628597   -1.3413779
H    -0.3083162   -3.5944309   -1.9054060
C     1.6251726   -3.7207967   -0.9552541
H     1.7670048   -4.7687404   -1.1927019
C     2.6109872   -3.0144177   -0.3183050
H     3.5525612   -3.4902813   -0.0646367
Bq         2.1137652067     2.0041925038     0.5581986022
Bq         1.8826554277     1.8761435725     1.4185425690
Bq         2.1394440710     2.0184201628     0.4626048281
Bq         2.0110497494     1.9472818677     0.9405736985
Bq         1.9816798345     2.0320369027     1.0499080122
Bq         2.0330375631     2.0604922207     0.8587204640
Bq         1.9560009702     2.0178092437     1.1455017863
Bq         2.0587164275     2.0747198798     0.7631266899
Bq         1.9303221059     2.0035815846     1.2410955604
Bq         2.0843952918     2.0889475388     0.6675329158
Bq         1.9046432415     1.9893539256     1.3366893345
Bq         2.1100741561     2.1031751978     0.5719391417
Bq         1.8789643772     1.9751262666     1.4322831086
Bq         2.1357530204     2.1174028569     0.4763453676
Bq         2.0073586988     2.0462645617     0.9543142381
Bq         1.9779887840     2.1310195967     1.0636485518
Bq         2.0293465126     2.1594749148     0.8724610036
Bq         1.9523099196     2.1167919377     1.1592423258
Bq         2.0550253769     2.1737025738     0.7768672295
Bq         1.9266310553     2.1025642787     1.2548360999
Bq         2.0807042413     2.1879302328     0.6812734554
Bq         1.9009521910     2.0883366196     1.3504298740
Bq         2.1063831056     2.2021578919     0.5856796813
Bq         1.8752733267     2.0741089606     1.4460236481
Bq         2.1320619699     2.2163855509     0.4900859072
Bq         2.0036676483     2.1452472558     0.9680547777
Bq         2.2591175608    -2.8181151051     0.4025643556
Bq         2.3104752894    -2.7896597870     0.2113768074
Bq         2.2334386965    -2.8323427641     0.4981581297
Bq         2.3361541538    -2.7754321280     0.1157830333
Bq         2.2077598321    -2.8465704231     0.5937519038
Bq         2.3618330181    -2.7612044690     0.0201892592
Bq         2.1820809678    -2.8607980821     0.6893456779
Bq         2.3875118824    -2.7469768099    -0.0754045149
Bq         2.1564021035    -2.8750257412     0.7849394520
Bq         2.4131907467    -2.7327491509    -0.1709982890
Bq         2.2847964251    -2.8038874460     0.3069705815
Bq         2.2554265102    -2.7191324110     0.4163048952
Bq         2.3067842389    -2.6906770930     0.2251173470
Bq         2.2297476459    -2.7333600701     0.5118986692
Bq         2.3324631032    -2.6764494339     0.1295235729
Bq         2.2040687816    -2.7475877291     0.6074924433
Bq         2.3581419675    -2.6622217749     0.0339297988
Bq         2.1783899173    -2.7618153881     0.7030862174
Bq         2.3838208319    -2.6479941159    -0.0616639753
Bq         2.1527110530    -2.7760430471     0.7986799915
Bq         2.4094996962    -2.6337664569    -0.1572577494
Bq         2.2811053746    -2.7049047520     0.3207111211
Bq         2.2517354597    -2.6201497170     0.4300454347
Bq         2.3030931884    -2.5916943989     0.2388578865
Bq         2.2260565954    -2.6343773760     0.5256392088
Bq         2.3287720527    -2.5774667399     0.1432641124
Bq         2.2003777311    -2.6486050350     0.6212329829
Bq         2.3544509170    -2.5632390809     0.0476703383
Bq         2.1746988667    -2.6628326941     0.7168267570
Bq         2.3801297813    -2.5490114219    -0.0479234358
Bq         2.1490200024    -2.6770603531     0.8124205311
Bq         2.4058086456    -2.5347837628    -0.1435172099
Bq         2.2774143240    -2.6059220580     0.3344516606
Bq         2.2480444092    -2.5211670230     0.4437859743
Bq         2.2994021378    -2.4927117049     0.2525984261
Bq         2.2223655449    -2.5353946820     0.5393797484
Bq         2.3250810021    -2.4784840459     0.1570046520
Bq         2.1966866805    -2.5496223410     0.6349735225
Bq         2.3507598665    -2.4642563868     0.0614108779
Bq         2.1710078162    -2.5638500000     0.7305672966
Bq         2.3764387308    -2.4500287278    -0.0341828962
Bq         2.1453289519    -2.5780776591     0.8261610707
Bq         2.4021175951    -2.4358010688    -0.1297766703
Bq         2.2737232735    -2.5069393639     0.3481922002
Bq         2.2443533586    -2.4221843289     0.4575265138
Bq         2.2957110873    -2.3937290109     0.2663389656
Bq         2.2186744943    -2.4364119879     0.5531202879
Bq         2.3213899516    -2.3795013518     0.1707451915
Bq         2.1929956300    -2.4506396470     0.6487140620
Bq         2.3470688159    -2.3652736928     0.0751514175
Bq         2.1673167657    -2.4648673060     0.7443078361
Bq         2.3727476803    -2.3510460338    -0.0204423566
Bq         2.1416379014    -2.4790949650     0.8399016102
Bq         2.3984265446    -2.3368183748    -0.1160361307
Bq         2.2700322230    -2.4079566699     0.3619327397
Bq         2.2406623081    -2.3232016349     0.4712670534
Bq         2.2920200368    -2.2947463168     0.2800795052
Bq         2.2149834438    -2.3374292939     0.5668608275
Bq         2.3176989011    -2.2805186578     0.1844857311
Bq         2.1893045795    -2.3516569529     0.6624546016
Bq         2.3433777654    -2.2662909988     0.0888919570
Bq         2.1636257151    -2.3658846120     0.7580483757
Bq         2.3690566297    -2.2520633397    -0.0067018171
Bq         2.1379468508    -2.3801122710     0.8536421498
Bq         2.3947354940    -2.2378356807    -0.1022955912
Bq         2.2663411724    -2.3089739759     0.3756732793
Bq         2.2369712576    -2.2242189408     0.4850075929
Bq         2.2883289862    -2.1957636228     0.2938200448
Bq         2.2112923932    -2.2384465999     0.5806013670
Bq         2.3140078505    -2.1815359638     0.1982262707
Bq         2.1856135289    -2.2526742589     0.6761951411
Bq         2.3396867149    -2.1673083047     0.1026324966
Bq         2.1599346646    -2.2669019179     0.7717889152
Bq         2.3653655792    -2.1530806457     0.0070387225
Bq         2.1342558003    -2.2811295770     0.8673826893
Bq         2.3910444435    -2.1388529867    -0.0885550516
Bq         2.2626501219    -2.2099912818     0.3894138189
Bq         2.2332802070    -2.1252362468     0.4987481325
Bq         2.2846379357    -2.0967809288     0.3075605843
Bq         2.2076013427    -2.1394639058     0.5943419066
Bq         2.3103168000    -2.0825532697     0.2119668102
Bq         2.1819224784    -2.1536915649     0.6899356807
Bq         2.3359956643    -2.0683256107     0.1163730361
Bq         2.1562436141    -2.1679192239     0.7855294548
Bq         2.3616745286    -2.0540979517     0.0207792620
Bq         2.1305647497    -2.1821468829     0.8811232289
Bq         2.3873533930    -2.0398702926    -0.0748145121
Bq         2.2589590714    -2.1110085878     0.4031543584
Bq         2.2295891565    -2.0262535528     0.5124886721
Bq         2.2809468851    -1.9977982347     0.3213011239
Bq         2.2039102922    -2.0404812118     0.6080824462
Bq         2.3066257495    -1.9835705757     0.2257073498
Bq         2.1782314279    -2.0547088708     0.7036762203
Bq         2.3323046138    -1.9693429167     0.1301135757
Bq         2.1525525635    -2.0689365299     0.7992699944
Bq         2.3579834781    -1.9551152576     0.0345198016
Bq         2.1268736992    -2.0831641889     0.8948637684
Bq         2.3836623424    -1.9408875986    -0.0610739725
Bq         2.2552680208    -2.0120258937     0.4168948980
Bq         2.2258981060    -1.9272708587     0.5262292116
Bq         2.2772558346    -1.8988155407     0.3350416634
Bq         2.2002192416    -1.9414985178     0.6218229857
Bq         2.3029346989    -1.8845878817     0.2394478893
Bq         2.1745403773    -1.9557261768     0.7174167598
Bq         2.3286135633    -1.8703602226     0.1438541152
Bq         2.1488615130    -1.9699538358     0.8130105339
Bq         2.3542924276    -1.8561325636     0.0482603412
Bq         2.1231826487    -1.9841814949     0.9086043080
Bq         2.3799712919    -1.8419049046    -0.0473334329
Bq         2.2515769703    -1.9130431997     0.4306354375
Bq         2.2222070554    -1.8282881647     0.5399697512
Bq         2.2735647841    -1.7998328466     0.3487822030
Bq         2.1965281911    -1.8425158237     0.6355635253
Bq         2.2992436484    -1.7856051876     0.2531884289
Bq         2.1708493268    -1.8567434828     0.7311572994
Bq         2.3249225127    -1.7713775286     0.1575946548
Bq         2.1451704625    -1.8709711418     0.8267510735
Bq         2.3506013770    -1.7571498696     0.0620008807
Bq         2.1194915981    -1.8851988008     0.9223448476
Bq         2.3762802414    -1.7429222105    -0.0335928934
Bq         2.2478859198    -1.8140605057     0.4443759771
Bq         2.2185160049    -1.7293054707     0.5537102907
Bq         2.2698737335    -1.7008501526     0.3625227426
Bq         2.1928371406    -1.7435331297     0.6493040648
Bq         2.2955525979    -1.6866224936     0.2669289685
Bq         2.1671582762    -1.7577607887     0.7448978389
Bq         2.3212314622    -1.6723948346     0.1713351944
Bq         2.1414794119    -1.7719884478     0.8404916130
Bq         2.3469103265    -1.6581671755     0.0757414203
Bq         2.1158005476    -1.7862161068     0.9360853871
Bq         2.3725891908    -1.6439395165    -0.0198523538
Bq         2.2441948692    -1.7150778116     0.4581165166
Bq         2.2148249544    -1.6303227766     0.5674508303
Bq         2.2661826830    -1.6018674586     0.3762632821
Bq         2.1891460900    -1.6445504357     0.6630446044
Bq         2.2918615473    -1.5876397995     0.2806695080
Bq         2.1634672257    -1.6587780947     0.7586383785
Bq         2.3175404116    -1.5734121405     0.1850757339
Bq         2.1377883614    -1.6730057537     0.8542321526
Bq         2.3432192760    -1.5591844815     0.0894819598
Bq         2.1121094971    -1.6872334127     0.9498259267
Bq         2.3688981403    -1.5449568225    -0.0061118143
Bq         2.2405038187    -1.6160951176     0.4718570562
Bq         2.2111339038    -1.5313400826     0.5811913699
Bq         2.2624916325    -1.5028847645     0.3900038217
Bq         2.1854550395    -1.5455677416     0.6767851440
Bq         2.2881704968    -1.4886571055     0.2944100476
Bq         2.1597761752    -1.5597954007     0.7723789181
Bq         2.3138493611    -1.4744294465     0.1988162735
Bq         2.1340973109    -1.5740230597     0.8679726921
Bq         2.3395282254    -1.4602017875     0.1032224994
Bq         2.1084184465    -1.5882507187     0.9635664662
Bq         2.3652070898    -1.4459741284     0.0076287253
Bq         2.2368127681    -1.5171124236     0.4855975958
Bq         2.2074428533    -1.4323573886     0.5949319094
Bq         2.2588005819    -1.4039020705     0.4037443612
Bq         2.1817639890    -1.4465850476     0.6905256835
Bq         2.2844794463    -1.3896744115     0.3081505871
Bq         2.1560851246    -1.4608127066     0.7861194576
Bq         2.3101583106    -1.3754467524     0.2125568130
Bq         2.1304062603    -1.4750403656     0.8817132317
Bq         2.3358371749    -1.3612190934     0.1169630389
Bq         2.1047273960    -1.4892680247     0.9773070058
Bq         2.3615160392    -1.3469914344     0.0213692649
Bq         2.2331217176    -1.4181297295     0.4993381353
Bq         2.2037518028    -1.3333746945     0.6086724490
Bq         2.2551095314    -1.3049193765     0.4174849008
Bq         2.1780729384    -1.3476023536     0.7042662231
Bq         2.2807883957    -1.2906917174     0.3218911267
Bq         2.1523940741    -1.3618300126     0.7998599972
Bq         2.3064672600    -1.2764640584     0.2262973526
Bq         2.1267152098    -1.3760576716     0.8954537713
Bq         2.3321461244    -1.2622363994     0.1307035785
Bq         2.1010363455    -1.3902853306     0.9910475454

1
2
3
4
5
6
7
8
9
10
11
12
13
14
15
16
17
18
19
20
21
22
23
24
25
26
27
28
29
30
31
32
33
34
35
36
37
38
39
40
41
42
43
44
45
46
47
48
49
50
51
52
53
54
55
56
57
58
59
60
61
62
63
64
65
66
67
68
69
70
71
72
73
74
75
76
77
78
79
80
81
82
83
84
85
86
87
88
89
90
91
92
93
94
95
96
97
98
99
100
101
102
103
104
105
106
107
108
109
110
111
112
113
114
115
116
117
118
119
120
121
122
123
124
125
126
127
128
129
130
131
132
133
134
135
136
137
138
139
140
141
142
143
144
145
146
147
148
149
150
151
152
153
154
155
156
157
158
159
160
161
162
163
164
165
166
167
168
169
170
171
172
173
174
175
176
177
178
179
180
181
182
183
184
185
186
187
188
189
190
191
192
193
194
195
196
197
198
199
200
201
202
203
204
205
206
207
208
209
210
211
212
213
214
215
216
217
218
219
220
221
222
223
224
225
226
227
228
229
230
231
232
233
234
235
236

