%nproc=8
%mem=1000MB
# rb3lyp/6-311+g** NMR geom=connectivity

Title

0 1
C    -4.0500558   -0.5771862    0.8136712
H    -5.0263804   -1.0082727    1.0024760
C    -3.9381552    0.6617804    0.2400876
H    -4.8252424    1.2338890   -0.0111295
C    -2.6768410    1.2433246    0.0057578
C    -1.4974121    0.5051527    0.2848253
C    -1.6508332   -0.7338728    0.9404026
H    -0.7713646   -1.2730967    1.2633753
C    -2.8898548   -1.2624035    1.1994307
H    -2.9683706   -2.2124563    1.7152676
C    -2.5773185    2.5963696   -0.4192930
H    -3.4870728    3.1412239   -0.6474055
C    -1.3741895    3.2147896   -0.4364030
H    -1.2997315    4.2742019   -0.6578144
C    -0.1719488    2.4994090   -0.1734588
C    -0.2043917    1.1018437    0.0192689
C     1.0513491    3.2042560   -0.0676222
H     1.0427344    4.2819499   -0.1896997
C     2.1942091    2.5487446    0.2579577
H     3.1168527    3.0912848    0.4334727
C     2.2216473    1.1336562    0.2934990
C     1.0486931    0.3945528    0.0302412
C     3.4483363    0.4614633    0.5573939
H     4.3095794    1.0606054    0.8334846
C     3.5427346   -0.8855926    0.4749463
H     4.4731467   -1.3939704    0.7038822
C     2.4490052   -1.6474447   -0.0196319
C     1.2150704   -1.0057258   -0.3013573
C     0.2531113   -1.7434440   -1.0216591
H    -0.6541356   -1.2535051   -1.3462847
C     0.4494193   -3.0628597   -1.3413779
H    -0.3083162   -3.5944309   -1.9054060
C     1.6251726   -3.7207967   -0.9552541
H     1.7670048   -4.7687404   -1.1927019
C     2.6109872   -3.0144177   -0.3183050
H     3.5525612   -3.4902813   -0.0646367
Bq        -0.2666412245    -2.1564494385    -1.0266112142
Bq        -0.4659500434    -2.2895276941    -0.5877875906
Bq        -0.2267794607    -2.1298337874    -1.1143759389
Bq        -0.5058118072    -2.3161433452    -0.5000228659
Bq        -0.1869176969    -2.1032181363    -1.2021406636
Bq        -0.5456735710    -2.3427589963    -0.4122581412
Bq        -0.1470559331    -2.0766024852    -1.2899053883
Bq        -0.3463647521    -2.2096807407    -0.8510817647
Bq        -0.3972329892    -2.1399034091    -0.7390837896
Bq        -0.3175094616    -2.0866721069    -0.9146132390
Bq        -0.4370947530    -2.1665190602    -0.6513190649
Bq        -0.2776476978    -2.0600564558    -1.0023779637
Bq        -0.4769565168    -2.1931347113    -0.5635543401
Bq        -0.2377859341    -2.0334408047    -1.0901426884
Bq        -0.5168182806    -2.2197503624    -0.4757896154
Bq        -0.1979241703    -2.0068251536    -1.1779074131
Bq        -0.5566800444    -2.2463660136    -0.3880248907
Bq        -0.1580624065    -1.9802095025    -1.2656721379
Bq        -0.3573712254    -2.1132877580    -0.8268485143
Bq        -0.4082394626    -2.0435104264    -0.7148505391
Bq        -0.3285159350    -1.9902791242    -0.8903799885
Bq        -0.4481012264    -2.0701260775    -0.6270858144
Bq        -0.2886541712    -1.9636634731    -0.9781447133
Bq        -0.4879629902    -2.0967417286    -0.5393210897
Bq        -0.2487924074    -1.9370478220    -1.0659094380
Bq        -0.5278247539    -2.1233573797    -0.4515563650
Bq        -0.2089306436    -1.9104321709    -1.1536741627
Bq        -0.5676865177    -2.1499730308    -0.3637916403
Bq        -0.1690688799    -1.8838165198    -1.2414388874
Bq        -0.3683776988    -2.0168947753    -0.8026152638
Bq        -0.4192459360    -1.9471174437    -0.6906172887
Bq        -0.3395224084    -1.8938861415    -0.8661467381
Bq        -0.4591076997    -1.9737330948    -0.6028525639
Bq        -0.2996606446    -1.8672704904    -0.9539114628
Bq        -0.4989694635    -2.0003487459    -0.5150878392
Bq        -0.2597988808    -1.8406548393    -1.0416761875
Bq        -0.5388312273    -2.0269643970    -0.4273231145
Bq        -0.2199371170    -1.8140391882    -1.1294409122
Bq        -0.5786929911    -2.0535800481    -0.3395583898
Bq        -0.1800753532    -1.7874235371    -1.2172056369
Bq        -0.3793841722    -1.9205017926    -0.7783820134
Bq        -0.4302524093    -1.8507244610    -0.6663840382
Bq        -0.3505288818    -1.7974931588    -0.8419134876
Bq        -0.4701141731    -1.8773401121    -0.5786193135
Bq        -0.3106671180    -1.7708775077    -0.9296782123
Bq        -0.5099759369    -1.9039557632    -0.4908545888
Bq        -0.2708053542    -1.7442618566    -1.0174429371
Bq        -0.5498377007    -1.9305714143    -0.4030898641
Bq        -0.2309435904    -1.7176462055    -1.1052076618
Bq        -0.5896994645    -1.9571870654    -0.3153251393
Bq        -0.1910818266    -1.6910305543    -1.1929723865
Bq        -0.3903906455    -1.8241088099    -0.7541487629
Bq        -0.4412588827    -1.7543314783    -0.6421507877
Bq        -0.3615353551    -1.7011001761    -0.8176802372
Bq        -0.4811206465    -1.7809471294    -0.5543860630
Bq        -0.3216735913    -1.6744845250    -0.9054449619
Bq        -0.5209824103    -1.8075627805    -0.4666213383
Bq        -0.2818118275    -1.6478688739    -0.9932096866
Bq        -0.5608441741    -1.8341784316    -0.3788566136
Bq        -0.2419500638    -1.6212532227    -1.0809744113
Bq        -0.6007059378    -1.8607940827    -0.2910918889
Bq        -0.2020883000    -1.5946375716    -1.1687391360
Bq        -0.4013971189    -1.7277158272    -0.7299155125
Bq        -0.4522653561    -1.6579384956    -0.6179175373
Bq        -0.3725418285    -1.6047071934    -0.7934469867
Bq        -0.4921271199    -1.6845541467    -0.5301528126
Bq        -0.3326800647    -1.5780915422    -0.8812117114
Bq        -0.5319888836    -1.7111697978    -0.4423880879
Bq        -0.2928183009    -1.5514758911    -0.9689764361
Bq        -0.5718506474    -1.7377854489    -0.3546233631
Bq        -0.2529565371    -1.5248602400    -1.0567411608
Bq        -0.6117124112    -1.7644011000    -0.2668586384
Bq        -0.2130947733    -1.4982445889    -1.1445058856
Bq        -0.4124035923    -1.6313228445    -0.7056822620
Bq        -0.4632718294    -1.5615455129    -0.5936842868
Bq        -0.3835483019    -1.5083142106    -0.7692137363
Bq        -0.5031335932    -1.5881611640    -0.5059195621
Bq        -0.3436865381    -1.4816985595    -0.8569784610
Bq        -0.5429953570    -1.6147768151    -0.4181548374
Bq        -0.3038247743    -1.4550829084    -0.9447431857
Bq        -0.5828571208    -1.6413924662    -0.3303901127
Bq        -0.2639630105    -1.4284672573    -1.0325079104
Bq        -0.6227188846    -1.6680081173    -0.2426253880
Bq        -0.2241012467    -1.4018516062    -1.1202726351
Bq        -0.4234100657    -1.5349298617    -0.6814490115
Bq        -0.4742783028    -1.4651525301    -0.5694510364
Bq        -0.3945547752    -1.4119212279    -0.7449804858
Bq        -0.5141400666    -1.4917681812    -0.4816863117
Bq        -0.3546930115    -1.3853055768    -0.8327452105
Bq        -0.5540018304    -1.5183838324    -0.3939215869
Bq        -0.3148312477    -1.3586899257    -0.9205099352
Bq        -0.5938635942    -1.5449994835    -0.3061568622
Bq        -0.2749694839    -1.3320742746    -1.0082746599
Bq        -0.6337253580    -1.5716151346    -0.2183921375
Bq        -0.2351077201    -1.3054586235    -1.0960393846
Bq        -0.4344165390    -1.4385368790    -0.6572157611
Bq        -0.4852847762    -1.3687595474    -0.5452177859
Bq        -0.4055612486    -1.3155282452    -0.7207472353
Bq        -0.5251465400    -1.3953751985    -0.4574530612
Bq        -0.3656994848    -1.2889125941    -0.8085119600
Bq        -0.5650083038    -1.4219908496    -0.3696883365
Bq        -0.3258377210    -1.2622969430    -0.8962766848
Bq        -0.6048700675    -1.4486065008    -0.2819236118
Bq        -0.2859759572    -1.2356812919    -0.9840414095
Bq        -0.6447318313    -1.4752221519    -0.1941588871
Bq        -0.2461141935    -1.2090656408    -1.0718061342
Bq        -0.4454230124    -1.3421438963    -0.6329825106
Bq        -0.4962912496    -1.2723665647    -0.5209845355
Bq        -0.4165677220    -1.2191352625    -0.6965139849
Bq        -0.5361530133    -1.2989822158    -0.4332198107
Bq        -0.3767059582    -1.1925196114    -0.7842787096
Bq        -0.5760147771    -1.3255978669    -0.3454550860
Bq        -0.3368441944    -1.1659039603    -0.8720434343
Bq        -0.6158765409    -1.3522135180    -0.2576903613
Bq        -0.2969824306    -1.1392883092    -0.9598081590
Bq        -0.6557383047    -1.3788291691    -0.1699256366
Bq        -0.2571206668    -1.1126726581    -1.0475728837
Bq        -0.4564294858    -1.2457509136    -0.6087492602
Bq        -0.5072977229    -1.1759735820    -0.4967512850
Bq        -0.4275741954    -1.1227422798    -0.6722807344
Bq        -0.5471594867    -1.2025892331    -0.4089865603
Bq        -0.3877124316    -1.0961266287    -0.7600454591
Bq        -0.5870212505    -1.2292048842    -0.3212218356
Bq        -0.3478506678    -1.0695109776    -0.8478101838
Bq        -0.6268830143    -1.2558205353    -0.2334571109
Bq        -0.3079889040    -1.0428953265    -0.9355749086
Bq        -0.6667447781    -1.2824361864    -0.1456923861
Bq        -0.2681271402    -1.0162796754    -1.0233396333
Bq        -0.4674359591    -1.1493579309    -0.5845160097
Bq        -0.5183041963    -1.0795805993    -0.4725180345
Bq        -0.4385806687    -1.0263492971    -0.6480474840
Bq        -0.5581659601    -1.1061962504    -0.3847533098
Bq        -0.3987189049    -0.9997336460    -0.7358122087
Bq        -0.5980277239    -1.1328119015    -0.2969885851
Bq        -0.3588571412    -0.9731179949    -0.8235769334
Bq        -0.6378894877    -1.1594275526    -0.2092238604
Bq        -0.3189953774    -0.9465023438    -0.9113416581
Bq        -0.6777512515    -1.1860432037    -0.1214591357
Bq        -0.2791336136    -0.9198866927    -0.9991063828
Bq        -0.4784424325    -1.0529649482    -0.5602827592
Bq        -0.5293106697    -0.9831876166    -0.4482847841
Bq        -0.4495871421    -0.9299563144    -0.6238142335
Bq        -0.5691724335    -1.0098032677    -0.3605200594
Bq        -0.4097253783    -0.9033406633    -0.7115789582
Bq        -0.6090341972    -1.0364189188    -0.2727553347
Bq        -0.3698636145    -0.8767250122    -0.7993436829
Bq        -0.6488959610    -1.0630345699    -0.1849906099
Bq        -0.3300018507    -0.8501093610    -0.8871084076
Bq        -0.6887577248    -1.0896502210    -0.0972258852
Bq        -0.2901400869    -0.8234937099    -0.9748731324
Bq        -0.4894489059    -0.9565719655    -0.5360495088
Bq        -0.5403171430    -0.8867946339    -0.4240515336
Bq        -0.4605936155    -0.8335633317    -0.5995809830
Bq        -0.5801789068    -0.9134102850    -0.3362868089
Bq        -0.4207318517    -0.8069476805    -0.6873457078
Bq        -0.6200406706    -0.9400259361    -0.2485220842
Bq        -0.3808700879    -0.7803320294    -0.7751104325
Bq        -0.6599024344    -0.9666415872    -0.1607573595
Bq        -0.3410083241    -0.7537163783    -0.8628751572
Bq        -0.6997641982    -0.9932572383    -0.0729926348
Bq        -0.3011465603    -0.7271007272    -0.9506398819
Bq        -0.5004553793    -0.8601789828    -0.5118162583
Bq        -0.5513236164    -0.7904016512    -0.3998182832
Bq        -0.4716000888    -0.7371703489    -0.5753477326
Bq        -0.5911853802    -0.8170173023    -0.3120535584
Bq        -0.4317383251    -0.7105546978    -0.6631124573
Bq        -0.6310471440    -0.8436329534    -0.2242888337
Bq        -0.3918765613    -0.6839390467    -0.7508771820
Bq        -0.6709089078    -0.8702486045    -0.1365241090
Bq        -0.3520147975    -0.6573233956    -0.8386419067
Bq        -0.7107706716    -0.8968642556    -0.0487593843
Bq        -0.3121530337    -0.6307077445    -0.9264066314
Bq        -0.5114618526    -0.7637860000    -0.4875830079
Bq        -0.5623300898    -0.6940086684    -0.3755850327
Bq        -0.4826065622    -0.6407773662    -0.5511144821
Bq        -0.6021918536    -0.7206243196    -0.2878203080
Bq        -0.4427447984    -0.6141617151    -0.6388792068
Bq        -0.6420536174    -0.7472399707    -0.2000555833
Bq        -0.4028830346    -0.5875460640    -0.7266439316
Bq        -0.6819153812    -0.7738556218    -0.1122908586
Bq        -0.3630212709    -0.5609304129    -0.8144086563
Bq        -0.7217771449    -0.8004712729    -0.0245261339
Bq        -0.3231595071    -0.5343147618    -0.9021733810
Bq        -0.5224683260    -0.6673930173    -0.4633497574
Bq        -0.5733365632    -0.5976156857    -0.3513517822
Bq        -0.4936130356    -0.5443843835    -0.5268812317
Bq        -0.6131983270    -0.6242313368    -0.2635870575
Bq        -0.4537512718    -0.5177687324    -0.6146459564
Bq        -0.6530600907    -0.6508469879    -0.1758223328
Bq        -0.4138895080    -0.4911530813    -0.7024106811
Bq        -0.6929218545    -0.6774626391    -0.0880576081
Bq        -0.3740277442    -0.4645374302    -0.7901754058
Bq        -0.7327836183    -0.7040782902    -0.0002928834
Bq        -0.3341659804    -0.4379217791    -0.8779401305
Bq        -0.5334747994    -0.5710000346    -0.4391165070
Bq        -0.5843430365    -0.5012227030    -0.3271185318
Bq        -0.5046195090    -0.4479914008    -0.5026479812
Bq        -0.6242048003    -0.5278383541    -0.2393538071
Bq        -0.4647577452    -0.4213757497    -0.5904127059
Bq        -0.6640665641    -0.5544540052    -0.1515890824

1
2
3
4
5
6
7
8
9
10
11
12
13
14
15
16
17
18
19
20
21
22
23
24
25
26
27
28
29
30
31
32
33
34
35
36
37
38
39
40
41
42
43
44
45
46
47
48
49
50
51
52
53
54
55
56
57
58
59
60
61
62
63
64
65
66
67
68
69
70
71
72
73
74
75
76
77
78
79
80
81
82
83
84
85
86
87
88
89
90
91
92
93
94
95
96
97
98
99
100
101
102
103
104
105
106
107
108
109
110
111
112
113
114
115
116
117
118
119
120
121
122
123
124
125
126
127
128
129
130
131
132
133
134
135
136
137
138
139
140
141
142
143
144
145
146
147
148
149
150
151
152
153
154
155
156
157
158
159
160
161
162
163
164
165
166
167
168
169
170
171
172
173
174
175
176
177
178
179
180
181
182
183
184
185
186
187
188
189
190
191
192
193
194
195
196
197
198
199
200
201
202
203
204
205
206
207
208
209
210
211
212
213
214
215
216
217
218
219
220
221
222
223
224
225
226
227
228
229
230
231
232
233
234
235
236

