%nproc=8
%mem=1000MB
# rb3lyp/6-311+g** NMR geom=connectivity

Title

0 1
C    -4.0500558   -0.5771862    0.8136712
H    -5.0263804   -1.0082727    1.0024760
C    -3.9381552    0.6617804    0.2400876
H    -4.8252424    1.2338890   -0.0111295
C    -2.6768410    1.2433246    0.0057578
C    -1.4974121    0.5051527    0.2848253
C    -1.6508332   -0.7338728    0.9404026
H    -0.7713646   -1.2730967    1.2633753
C    -2.8898548   -1.2624035    1.1994307
H    -2.9683706   -2.2124563    1.7152676
C    -2.5773185    2.5963696   -0.4192930
H    -3.4870728    3.1412239   -0.6474055
C    -1.3741895    3.2147896   -0.4364030
H    -1.2997315    4.2742019   -0.6578144
C    -0.1719488    2.4994090   -0.1734588
C    -0.2043917    1.1018437    0.0192689
C     1.0513491    3.2042560   -0.0676222
H     1.0427344    4.2819499   -0.1896997
C     2.1942091    2.5487446    0.2579577
H     3.1168527    3.0912848    0.4334727
C     2.2216473    1.1336562    0.2934990
C     1.0486931    0.3945528    0.0302412
C     3.4483363    0.4614633    0.5573939
H     4.3095794    1.0606054    0.8334846
C     3.5427346   -0.8855926    0.4749463
H     4.4731467   -1.3939704    0.7038822
C     2.4490052   -1.6474447   -0.0196319
C     1.2150704   -1.0057258   -0.3013573
C     0.2531113   -1.7434440   -1.0216591
H    -0.6541356   -1.2535051   -1.3462847
C     0.4494193   -3.0628597   -1.3413779
H    -0.3083162   -3.5944309   -1.9054060
C     1.6251726   -3.7207967   -0.9552541
H     1.7670048   -4.7687404   -1.1927019
C     2.6109872   -3.0144177   -0.3183050
H     3.5525612   -3.4902813   -0.0646367
Bq         4.0783511730     1.8204547748     0.9539793847
Bq         3.9499568514     1.7493164796     1.4319482552
Bq         3.9205869365     1.8340715146     1.5412825689
Bq         3.9719446651     1.8625268327     1.3500950207
Bq         3.8949080722     1.8198438556     1.6368763429
Bq         3.9976235295     1.8767544917     1.2545012466
Bq         3.8692292079     1.8056161966     1.7324701170
Bq         4.0233023938     1.8909821507     1.1589074725
Bq         3.8435503435     1.7913885375     1.8280638911
Bq         4.0489812581     1.9052098098     1.0633136984
Bq         3.8178714792     1.7771608785     1.9236576652
Bq         4.0746601224     1.9194374688     0.9677199243
Bq         3.9462658008     1.8482991736     1.4456887948
Bq         3.9168958860     1.9330542087     1.5550231084
Bq         3.9682536146     1.9615095267     1.3638355602
Bq         3.8912170216     1.9188265496     1.6506168825
Bq         3.9939324789     1.9757371857     1.2682417861
Bq         3.8655381573     1.9045988906     1.7462106566
Bq         4.0196113433     1.9899648448     1.1726480120
Bq         3.8398592930     1.8903712316     1.8418044307
Bq         4.0452902076     2.0041925038     1.0770542379
Bq         3.8141804287     1.8761435725     1.9373982048
Bq         4.0709690719     2.0184201628     0.9814604638
Bq         3.9425747503     1.9472818677     1.4594293343
Bq         3.9132048354     2.0320369027     1.5687636480
Bq         3.9645625641     2.0604922207     1.3775760998
Bq         3.8875259711     2.0178092437     1.6643574221
Bq         3.9902414284     2.0747198798     1.2819823257
Bq         3.8618471068     2.0035815846     1.7599511962
Bq         4.0159202927     2.0889475388     1.1863885516
Bq         3.8361682425     1.9893539256     1.8555449703
Bq         4.0415991570     2.1031751978     1.0907947775
Bq         3.8104893781     1.9751262666     1.9511387444
Bq         4.0672780214     2.1174028569     0.9952010034
Bq         3.9388836998     2.0462645617     1.4731698739
Bq         3.9095137849     2.1310195967     1.5825041875
Bq         3.9608715135     2.1594749148     1.3913166393
Bq         3.8838349206     2.1167919377     1.6780979616
Bq         3.9865503779     2.1737025738     1.2957228652
Bq         3.8581560563     2.1025642787     1.7736917357
Bq         4.0122292422     2.1879302328     1.2001290912
Bq         3.8324771919     2.0883366196     1.8692855098
Bq         4.0379081065     2.2021578919     1.1045353171
Bq         3.8067983276     2.0741089606     1.9648792839
Bq         4.0635869708     2.2163855509     1.0089415430
Bq         3.9351926492     2.1452472558     1.4869104134
Bq         4.1906425617    -2.8181151051     0.9214199914
Bq         4.2420002904    -2.7896597870     0.7302324432
Bq         4.1649636974    -2.8323427641     1.0170137655
Bq         4.2676791547    -2.7754321280     0.6346386691
Bq         4.1392848331    -2.8465704231     1.1126075396
Bq         4.2933580190    -2.7612044690     0.5390448950
Bq         4.1136059687    -2.8607980821     1.2082013137
Bq         4.3190368833    -2.7469768099     0.4434511209
Bq         4.0879271044    -2.8750257412     1.3037950878
Bq         4.3447157476    -2.7327491509     0.3478573468
Bq         4.2163214260    -2.8038874460     0.8258262173
Bq         4.1869515112    -2.7191324110     0.9351605309
Bq         4.2383092398    -2.6906770930     0.7439729827
Bq         4.1612726469    -2.7333600701     1.0307543050
Bq         4.2639881041    -2.6764494339     0.6483792087
Bq         4.1355937825    -2.7475877291     1.1263480791
Bq         4.2896669685    -2.6622217749     0.5527854346
Bq         4.1099149182    -2.7618153881     1.2219418532
Bq         4.3153458328    -2.6479941159     0.4571916605
Bq         4.0842360539    -2.7760430471     1.3175356273
Bq         4.3410246971    -2.6337664569     0.3615978864
Bq         4.2126303755    -2.7049047520     0.8395667568
Bq         4.1832604606    -2.6201497170     0.9489010705
Bq         4.2346181893    -2.5916943989     0.7577135223
Bq         4.1575815963    -2.6343773760     1.0444948446
Bq         4.2602970536    -2.5774667399     0.6621197482
Bq         4.1319027320    -2.6486050350     1.1400886187
Bq         4.2859759179    -2.5632390809     0.5665259741
Bq         4.1062238677    -2.6628326941     1.2356823928
Bq         4.3116547823    -2.5490114219     0.4709322000
Bq         4.0805450034    -2.6770603531     1.3312761669
Bq         4.3373336466    -2.5347837628     0.3753384259
Bq         4.2089393250    -2.6059220580     0.8533072964
Bq         4.1795694101    -2.5211670230     0.9626416101
Bq         4.2309271388    -2.4927117049     0.7714540619
Bq         4.1538905458    -2.5353946820     1.0582353841
Bq         4.2566060031    -2.4784840459     0.6758602878
Bq         4.1282116815    -2.5496223410     1.1538291582
Bq         4.2822848674    -2.4642563868     0.5802665137
Bq         4.1025328171    -2.5638500000     1.2494229323
Bq         4.3079637317    -2.4500287278     0.4846727396
Bq         4.0768539528    -2.5780776591     1.3450167064
Bq         4.3336425960    -2.4358010688     0.3890789655
Bq         4.2052482744    -2.5069393639     0.8670478360
Bq         4.1758783596    -2.4221843289     0.9763821496
Bq         4.2272360882    -2.3937290109     0.7851946014
Bq         4.1501994952    -2.4364119879     1.0719759237
Bq         4.2529149525    -2.3795013518     0.6896008273
Bq         4.1245206309    -2.4506396470     1.1675696978
Bq         4.2785938169    -2.3652736928     0.5940070532
Bq         4.0988417666    -2.4648673060     1.2631634719
Bq         4.3042726812    -2.3510460338     0.4984132791
Bq         4.0731629023    -2.4790949650     1.3587572460
Bq         4.3299515455    -2.3368183748     0.4028195050
Bq         4.2015572239    -2.4079566699     0.8807883755
Bq         4.1721873090    -2.3232016349     0.9901226892
Bq         4.2235450377    -2.2947463168     0.7989351410
Bq         4.1465084447    -2.3374292939     1.0857164633
Bq         4.2492239020    -2.2805186578     0.7033413669
Bq         4.1208295804    -2.3516569529     1.1813102374
Bq         4.2749027663    -2.2662909988     0.6077475928
Bq         4.0951507161    -2.3658846120     1.2769040115
Bq         4.3005816306    -2.2520633397     0.5121538187
Bq         4.0694718517    -2.3801122710     1.3724977855
Bq         4.3262604950    -2.2378356807     0.4165600446
Bq         4.1978661734    -2.3089739759     0.8945289151
Bq         4.1684962585    -2.2242189408     1.0038632287
Bq         4.2198539871    -2.1957636228     0.8126756805
Bq         4.1428173942    -2.2384465999     1.0994570028
Bq         4.2455328515    -2.1815359638     0.7170819064
Bq         4.1171385299    -2.2526742589     1.1950507769
Bq         4.2712117158    -2.1673083047     0.6214881324
Bq         4.0914596655    -2.2669019179     1.2906445510
Bq         4.2968905801    -2.1530806457     0.5258943583
Bq         4.0657808012    -2.2811295770     1.3862383251
Bq         4.3225694444    -2.1388529867     0.4303005842
Bq         4.1941751228    -2.2099912818     0.9082694546
Bq         4.1648052080    -2.1252362468     1.0176037683
Bq         4.2161629366    -2.0967809288     0.8264162201
Bq         4.1391263436    -2.1394639058     1.1131975424
Bq         4.2418418009    -2.0825532697     0.7308224460
Bq         4.1134474793    -2.1536915649     1.2087913165
Bq         4.2675206653    -2.0683256107     0.6352286719
Bq         4.0877686150    -2.1679192239     1.3043850906
Bq         4.2931995296    -2.0540979517     0.5396348978
Bq         4.0620897507    -2.1821468829     1.3999788647
Bq         4.3188783939    -2.0398702926     0.4440411237
Bq         4.1904840723    -2.1110085878     0.9220099942
Bq         4.1611141574    -2.0262535528     1.0313443078
Bq         4.2124718861    -1.9977982347     0.8401567597
Bq         4.1354352931    -2.0404812118     1.1269380819
Bq         4.2381507504    -1.9835705757     0.7445629856
Bq         4.1097564288    -2.0547088708     1.2225318560
Bq         4.2638296147    -1.9693429167     0.6489692115
Bq         4.0840775645    -2.0689365299     1.3181256301
Bq         4.2895084790    -1.9551152576     0.5533754374
Bq         4.0583987001    -2.0831641889     1.4137194042
Bq         4.3151873434    -1.9408875986     0.4577816633
Bq         4.1867930218    -2.0120258937     0.9357505338
Bq         4.1574231069    -1.9272708587     1.0450848474
Bq         4.2087808355    -1.8988155407     0.8538972992
Bq         4.1317442426    -1.9414985178     1.1406786215
Bq         4.2344596999    -1.8845878817     0.7583035251
Bq         4.1060653782    -1.9557261768     1.2362723956
Bq         4.2601385642    -1.8703602226     0.6627097510
Bq         4.0803865139    -1.9699538358     1.3318661697
Bq         4.2858174285    -1.8561325636     0.5671159769
Bq         4.0547076496    -1.9841814949     1.4274599438
Bq         4.3114962928    -1.8419049046     0.4715222028
Bq         4.1831019712    -1.9130431997     0.9494910733
Bq         4.1537320564    -1.8282881647     1.0588253870
Bq         4.2050897850    -1.7998328466     0.8676378388
Bq         4.1280531920    -1.8425158237     1.1544191611
Bq         4.2307686493    -1.7856051876     0.7720440647
Bq         4.1023743277    -1.8567434828     1.2500129352
Bq         4.2564475136    -1.7713775286     0.6764502906
Bq         4.0766954634    -1.8709711418     1.3456067092
Bq         4.2821263780    -1.7571498696     0.5808565165
Bq         4.0510165991    -1.8851988008     1.4412004833
Bq         4.3078052423    -1.7429222105     0.4852627424
Bq         4.1794109207    -1.8140605057     0.9632316129
Bq         4.1500410058    -1.7293054707     1.0725659265
Bq         4.2013987345    -1.7008501526     0.8813783783
Bq         4.1243621415    -1.7435331297     1.1681597006
Bq         4.2270775988    -1.6866224936     0.7857846042
Bq         4.0986832772    -1.7577607887     1.2637534747
Bq         4.2527564631    -1.6723948346     0.6901908301
Bq         4.0730044129    -1.7719884478     1.3593472488
Bq         4.2784353274    -1.6581671755     0.5945970560
Bq         4.0473255485    -1.7862161068     1.4549410229
Bq         4.3041141918    -1.6439395165     0.4990032820
Bq         4.1757198701    -1.7150778116     0.9769721524
Bq         4.1463499553    -1.6303227766     1.0863064661
Bq         4.1977076839    -1.6018674586     0.8951189179
Bq         4.1206710910    -1.6445504357     1.1819002402
Bq         4.2233865483    -1.5876397995     0.7995251438
Bq         4.0949922266    -1.6587780947     1.2774940143
Bq         4.2490654126    -1.5734121405     0.7039313697
Bq         4.0693133623    -1.6730057537     1.3730877884
Bq         4.2747442769    -1.5591844815     0.6083375956
Bq         4.0436344980    -1.6872334127     1.4686815625
Bq         4.3004231412    -1.5449568225     0.5127438215
Bq         4.1720288196    -1.6160951176     0.9907126920
Bq         4.1426589048    -1.5313400826     1.1000470056
Bq         4.1940166334    -1.5028847645     0.9088594575
Bq         4.1169800404    -1.5455677416     1.1956407797
Bq         4.2196954977    -1.4886571055     0.8132656834
Bq         4.0913011761    -1.5597954007     1.2912345538
Bq         4.2453743620    -1.4744294465     0.7176719093
Bq         4.0656223118    -1.5740230597     1.3868283279
Bq         4.2710532264    -1.4602017875     0.6220781352
Bq         4.0399434475    -1.5882507187     1.4824221020
Bq         4.2967320907    -1.4459741284     0.5264843611
Bq         4.1683377691    -1.5171124236     1.0044532315

1
2
3
4
5
6
7
8
9
10
11
12
13
14
15
16
17
18
19
20
21
22
23
24
25
26
27
28
29
30
31
32
33
34
35
36
37
38
39
40
41
42
43
44
45
46
47
48
49
50
51
52
53
54
55
56
57
58
59
60
61
62
63
64
65
66
67
68
69
70
71
72
73
74
75
76
77
78
79
80
81
82
83
84
85
86
87
88
89
90
91
92
93
94
95
96
97
98
99
100
101
102
103
104
105
106
107
108
109
110
111
112
113
114
115
116
117
118
119
120
121
122
123
124
125
126
127
128
129
130
131
132
133
134
135
136
137
138
139
140
141
142
143
144
145
146
147
148
149
150
151
152
153
154
155
156
157
158
159
160
161
162
163
164
165
166
167
168
169
170
171
172
173
174
175
176
177
178
179
180
181
182
183
184
185
186
187
188
189
190
191
192
193
194
195
196
197
198
199
200
201
202
203
204
205
206
207
208
209
210
211
212
213
214
215
216
217
218
219
220
221
222
223
224
225
226
227
228
229
230
231
232
233
234
235
236

